#=======================================================
#FHI-aims file: test.in
#Created using the Atomic Simulation Environment (ASE)
#=======================================================
lattice_vector 60.9272287797832419 0.0000000000000000 0.0000000000000000 
lattice_vector -19.8093467027773649 86.2036280140085012 0.0000000000000000 
lattice_vector -6.5664372367738544 -2.4468815543057252 43.5191951233555301 
atom 2.1956700197296479 5.3970302154144552 9.4206100855570405 C
atom 3.0378100411018929 5.1154502590785400 10.5401400381119572 C
atom 3.7559400290645542 4.3048301490763192 10.4478801081589925 H
atom 2.9329498725881940 5.8072801396761777 11.7179900818659011 C
atom 3.5503700288996085 5.5402800738457181 12.5742300300136201 H
atom 2.0160900290843347 6.8860999602452067 11.8293998767147492 C
atom 1.9567999560583409 7.4332601999556385 12.7687598060345717 H
atom 1.2129900564214373 7.2236197686870351 10.7710100007139591 C
atom 0.5326200374957695 8.0711700978600849 10.8445598120330171 H
atom 1.2222702371630956 6.4689098768669382 9.5539897306568680 C
atom 0.2902997384115860 6.7215999325693305 8.5323797874991065 C
atom -0.7371898927327497 7.7897197899407580 8.7018900650046014 C
atom -0.4375898648455043 9.1275602131821536 8.3998600553664460 C
atom 0.5528398987114138 9.3751601132961326 8.0149402566427810 H
atom -1.3846699604902433 10.1329101281909200 8.6068000953295414 C
atom 1.3479900421400106 0.3906698382936508 8.3680898431758237 H
atom -2.6433502356261838 9.8151799598925464 9.1255498689592205 C
atom -0.8947301817352898 -0.1720900164069928 9.3178999640498628 H
atom -2.9609100088627556 8.4843500763366997 9.4064598869465623 C
atom 3.6743901166761921 8.2242197890537803 9.8033602577173937 H
atom -2.0165001414225219 7.4798198568270973 9.1886500179012760 C
atom -2.2695802007290995 6.4443100158794575 9.4069001623857531 H
atom 0.3027200567207298 5.9244701371960149 7.3608401819811347 C
atom -0.6460301222005486 6.1065298522500306 6.3324800543254218 C
atom -1.3924197607389508 6.8839499132386850 6.4671699421986046 H
atom -0.6596199221450386 5.3393700081969975 5.1605102277352612 C
atom -1.5782001207604406 5.5709702353495789 4.0751402516538739 C
atom 5.0213599051542355 6.6432298460392465 4.2957801604212573 C
atom -2.2331198909212513 7.9845797725411023 4.5194702466303296 C
atom -1.1991801187573530 8.2962201695003071 4.3621500953473840 H
atom 4.4380399282915555 8.9115199127289930 4.9616300858662639 C
atom -2.8716499845164782 9.9385597432443475 5.1565900829594042 H
atom 3.1158398666855840 8.5180501978142491 5.1811798895798846 C
atom 2.3959799984215895 9.2232799037377848 5.5954801362112638 H
atom 2.7263500935714906 7.2100199143755441 4.8859000644396824 C
atom 1.6908497778136395 6.9045597780585153 5.0273401368108184 H
atom 3.6699900081703540 6.2821097923606919 4.4439698881131333 C
atom 3.3670900311980327 5.2548900415937441 4.2387697828183715 H
atom -1.5689702118537860 4.7223499098567689 2.9608301031039601 C
atom 5.3430102182284660 5.0505599036331486 1.7094397732207474 C
atom 4.9478402569361801 6.3596702377586123 1.3913100761283985 C
atom 5.1944802295901971 7.1772299777001667 2.0597598492089051 H
atom 4.2727800021413103 6.6587802475488758 0.2054101886473556 C
atom 3.9823601405029261 7.6898201285988845 0.0052198040050017 H
atom 0.6975497570666230 4.4347098161054772 21.0548197730920528 C
atom 0.1322498517552729 4.6390399540660718 20.1459198131894937 H
atom 1.1412701398965095 3.1210797794245875 21.2865602322054350 C
atom 5.1364099100345522 4.0401499961369716 0.7263401723845594 C
atom 0.8816097619765699 2.0862102429017280 20.3339200716092989 C
atom 0.3233399759075605 2.3410000737756378 19.4321999880996721 H
atom 1.2972398309380959 0.8072402551583489 20.5569597990265898 C
atom 1.0774698895048800 0.0171199411161614 19.8412899559158404 H
atom 2.0333602565282960 0.4659802221922544 21.7374197447830362 C
atom 5.7024501342634810 0.3569998799171053 0.2297798575482417 C
atom -0.3107101034230333 9.1347199808410817 21.2661001245361945 H
atom 6.3741601681382720 0.0435597512647731 1.4004500249092569 C
atom 4.1533298887551551 9.7852200629392634 1.6341500272333558 H
atom 6.7445201850904821 1.0520598582080254 2.2949902320259548 C
atom -0.3485600325858226 0.7595201126641227 3.1973601451501543 H
atom 6.4335698352138531 2.4026799110845385 2.0665100337068574 C
atom 5.6352800833949814 2.7117500943320341 0.9276100785364635 C
atom -0.8138300989615004 3.4714797611715400 3.0115300424708713 C
atom 0.1850098780029090 3.3150697946907646 3.9765698834649363 C
atom 1.2148199512155671 2.2346597966039923 3.9585101236228137 C
atom 2.1963600668122236 2.2339401155976253 2.9575698423096766 C
atom 2.1509201489183170 2.9700499576436141 2.1576798586060595 H
atom 3.2397101973115783 1.3122102542249472 2.9843298046706797 C
atom 3.9945799006492662 1.3342901733357233 2.2044702367413249 H
atom 3.3255199862449794 0.3724698464907286 4.0098598926042976 C
atom 1.6800000574654490 10.4437101917397506 4.0220500188268460 H
atom 2.3530499680373875 0.3521499707822877 5.0114600578990078 C
atom -0.0703001340689852 10.3975897519530562 5.8196099686823155 H
atom 1.3105698048721992 1.2798997521023401 4.9886101859468601 C
atom 0.5663497928971087 1.2791700167289726 5.7874000102297156 H
atom 0.3033799407023030 4.2671601401651227 5.0445299293187738 C
atom 1.2758002162521018 4.1201499484755919 6.0359000407788637 C
atom 2.0142299711892027 3.3357902575476022 5.9251400755445882 H
atom 1.3200500145994505 4.9049298061087692 7.1991701940273538 C
atom 2.2782798740707695 4.6592497609147152 8.2244801442413777 C
atom 3.3074200089348533 3.6006598559283325 8.0023199093480439 C
atom 4.2193902550131028 3.7211101142424527 6.9371798488493024 C
atom 4.2218101823970109 4.6347298056860291 6.3455401478821365 H
atom 5.0985499265047620 2.6849197514020262 6.6194898980189318 C
atom 5.7687100003298113 2.7929200574832111 5.7680400619812380 H
atom 5.1085698969867890 1.5139998123976248 7.3812997604731638 C
atom 5.7805201773151751 0.6943498224743434 7.1219198464748237 H
atom 4.2595399883330032 1.4074198179495934 8.4853798551884569 C
atom 4.2815897443427771 0.5208400236114078 9.1211899779213859 H
atom 3.3651299588101042 2.4362202210444956 8.7869701185646321 C
atom 2.6982597797031302 2.3358199580614287 9.6392899219364949 H
atom -0.3391602577945771 4.1549597545636914 12.3390102307407812 C
atom -1.1812997499896112 4.4365497652666077 11.2194702238188668 C
atom -1.8994297379522727 5.2471698752688276 11.3117301537718298 H
atom -1.0764401106531227 3.7447198846689691 10.0416302344319206 C
atom -1.6938597377873268 4.0117098961324285 9.1853897571069911 H
atom -0.1595797379720531 2.6658900097329403 9.9302199104058619 C
atom -0.1003002484902704 2.1187297700225081 8.9908499267190383 H
atom 0.6435101803238436 2.3283802556581112 10.9885997320396509 C
atom 1.3238801992495115 1.4808198721180617 10.9150599750875958 H
atom 0.6342400539491861 3.0830901474782091 12.2056200020967438 C
atom 1.5661999691564845 2.8303900374088156 13.2272299452545035 C
atom 2.5937001838450313 1.7622701800373881 13.0577302512932203 C
atom 2.2941001559577860 0.4244398111629929 13.3597502065643763 C
atom 1.3036598088566567 0.1768298566820132 13.7446800596550389 H
atom 3.2411802516025250 -0.5809201582127735 13.1528202209682803 C
atom 0.5085202489722711 9.1613301860514955 13.3915198895777845 H
atom -1.2593301047505130 1.0339498265308991 16.5784298431737263 C
atom 4.4998599975612548 -0.2631799355473997 12.6340699181613889 C
atom 2.7512399436703610 9.7240900407521398 12.4417097687037490 H
atom 4.8174197707978266 1.0676499480084467 12.3531498458070459 C
atom -1.8178798255639106 1.3277802352913670 11.9562500042134285 H
atom 3.8730099033575924 2.0721701131510484 12.5709602440295463 C
atom 4.1260799082971706 3.1076799540986899 12.3527100995450692 H
atom 1.5537902343915517 3.6275298871491328 14.3987700799496867 C
atom 2.5025398841356199 3.4454701720951171 15.4271302076054013 C
atom 3.2489300518512323 2.6680501111064614 15.2924397905550062 H
atom 2.5161302132573202 4.2126199617811491 16.5991000341955619 C
atom 3.4347098826955120 3.9810197346285681 17.6844700102769465 C
atom -3.1648501432191645 2.9087701783059003 17.4638301015095614 C
atom 4.0896301820335328 1.5674101974370440 17.2401400153004936 C
atom 3.0556898806924235 1.2557798548448400 17.3974601665834356 H
atom -2.5815301663564840 0.6404801116161549 16.7979902304315587 C
atom 4.7281597464515492 -0.3865602480764120 16.6030201789714162 H
atom -0.3398598300669425 7.3180599087475224 18.8020499448109319 C
atom -0.5394797616763085 0.3287201206073631 16.1641301257195558 H
atom -0.8698398024592090 2.3419700556026015 16.8737101974911390 C
atom 0.1656599841214316 2.6474402462866320 16.7322701251200030 H
atom -1.8134802462352830 3.2698902319844558 17.3156498990074788 C
atom -1.5105797400857508 4.2971099827514045 17.5208399499352403 H
atom 3.4254699194218565 4.8296501144883779 18.7987801588268617 C
atom -3.4865099814831852 4.5014300663449980 20.0501800138998654 C
atom -3.0913400201908994 3.1923202613967443 20.3683001858024255 C
atom -3.3379699384779147 2.3747700466449801 19.6998498835447080 H
atom -2.4162797653960291 2.8932197767962715 21.5542000732834644 C
atom -2.1258498493906441 1.8621698413792620 21.7543899287486084 H
atom 1.1589499505014473 5.1172902082396705 0.7047899596615574 C
atom 1.7242498558127974 4.9129600702790750 1.6136899195641152 H
atom 0.7152401512157721 6.4309202449205598 0.4730500297253873 C
atom -3.2799102024664819 5.5118500282081753 21.0332801439132595 C
atom 0.9748999999585012 7.4657802562536295 1.4256901903215204 C
atom 1.5331697860275106 7.2109898962025083 2.3274097446539375 H
atom 0.5592699309969751 8.7447597691867980 1.2026499337270200 C
atom 0.7790398724301911 9.5348800832289875 1.9183298312047707 H
atom -0.1768600197830153 9.0860097477858908 0.0221899879705735 C
atom -3.8459398431511995 9.1949900900610420 21.5298298752053689 C
atom 2.1672198653581045 0.4172800435040642 0.4935101373946277 H
atom -4.5176498770259910 9.5084397439031640 20.3591602370215625 C
atom -2.2968201268200841 -0.2332300929611179 20.1254697598872561 H
atom -4.8880098939782011 8.4999401661371223 19.4646300842718674 C
atom 2.2050697945208939 8.7924698573140230 18.5622601711476669 H
atom -4.5770701276457828 7.1493201132606083 19.6931002282239618 C
atom -3.7787697922826995 6.8402499300131128 20.8320001833943564 C
atom 2.6703398608965712 6.0805102088066061 18.7480802194599505 C
atom 1.6714898295651612 6.2369201752873815 17.7830398492886737 C
atom 0.6416898107195039 7.3173301733741543 17.8011001383080085 C
atom -0.2944199121730360 6.5819400123345329 19.6019298741475509 H
atom -1.3831999061992970 8.2397802449304098 18.7752799280829308 C
atom -2.1380701387141952 8.2176997966424228 19.5551500795564976 H
atom -1.4690102243099084 9.1795201234874177 17.7497498401493132 C
atom 0.1765102336468326 -0.8917101673946020 17.7375697682937634 H
atom -0.4965402061023163 9.1998500535628605 16.7481597292216051 C
atom 1.9268098960040563 -0.8455997819749111 15.9399997640712936 H
atom 0.5459399570628719 8.2720902178758067 16.7710000759839595 C
atom 1.2901499146709616 8.2728300076161752 15.9722102517011049 H
atom 1.5531298212327682 5.2848298298130247 16.7150798034348362 C
atom 0.5807100748601797 5.4318400215025546 15.7237102211519559 C
atom -0.1577202092541317 6.2162097667975447 15.8344701863862323 H
atom 0.5364502221458306 4.6470601638693774 14.5604400679034658 C
atom -0.4217801665026990 4.8927497342532211 13.5351301176894427 C
atom -1.4509102469997828 5.9513301140498145 13.7572998777725672 C
atom -2.3628799639008209 5.8308899101026936 14.8224298839043076 C
atom -2.3652998912847298 4.9172702186591177 15.4140701140486858 H
atom -3.2420502189366918 6.8670797437659106 15.1401198347346782 C
atom -3.9122097635845301 6.7590799668619361 15.9915701999495852 H
atom -3.2520601350517175 8.0380002119475229 14.3783200266474473 C
atom -3.9240098862028936 8.8576502018708041 14.6376898862787872 H
atom -2.4030302263979317 8.1445802063955544 13.2742298775651530 C
atom -2.4250799824077056 9.0311600007337400 12.6384197548322241 H
atom -1.5086302512420335 7.1157798033006516 12.9726501977331878 C
atom -0.8417600721350599 7.2161700119167183 12.1203198108171151 H
atom -1.0875602405559113 4.1735730337680650 31.1802229933739170 C
atom -0.2454202191836665 3.8919930774321494 32.2997529459288302 C
atom 0.4727097687789948 3.0813729674299291 32.2074930159758637 H
atom -0.3502798585201551 4.5838229580297876 33.4776029896827723 C
atom 0.2671397686140488 4.3168228921993279 34.3338429378304895 H
atom -1.2671402312012245 5.6626427785988165 33.5890127845316258 C
atom -1.3264297750500080 6.2098030183092483 34.5283727138514465 H
atom -2.0702402038641221 6.0001631162178564 32.5306229085308303 C
atom -2.7506102227897897 6.8477129162136956 32.6041727198498918 H
atom -2.0609600231224641 5.2454532243977585 31.3136031676509532 C
atom -2.9929299926967627 5.4981427509229404 30.2919932244931935 C
atom -4.0204201530183088 6.5662631374715783 30.4615029728214743 C
atom -3.7208201251310635 7.9041030315357643 30.1594729631833189 C
atom -2.7303898323969351 8.1517029316497425 29.7745531644596575 H
atom -4.6679002207758025 8.9094529465445298 30.3664130031464126 C
atom -1.9352402181455488 -0.8327868141755288 30.1277027509926967 H
atom -5.9265799667345327 8.5917227782461563 30.8851627767760988 C
atom -4.1779599128436384 -1.3955471980533829 31.0775128718667375 H
atom -6.2441397399711045 7.2608928946903104 31.1660727947634371 C
atom 0.3911598563906329 7.0007631365846006 31.5629731655342667 H
atom -5.2997298725308708 6.2563632043579185 30.9482629257181507 C
atom -5.5528099318374489 5.2208528342330673 31.1665130702026261 H
atom -2.9805102035648297 4.7010129555496247 29.1204530897980085 C
atom -3.9292598533088974 4.8830731997808510 28.0920929621422957 C
atom -4.6756500210245102 5.6604932607695062 28.2267828500154749 H
atom -3.9428501824305981 4.1159128265506073 26.9201231355521351 C
atom -4.8614298518687900 4.3475130537031887 25.8347531594707469 C
atom 1.7381301740458870 5.4197731935700677 26.0553930682381321 C
atom -5.5163501512068107 6.7611231200719226 26.2790831544472034 C
atom -4.4824098498657019 7.0727629878539169 26.1217630031642578 H
atom 1.1548101971832065 7.6880627310826020 26.7212429936831377 C
atom -6.1548802448020377 8.7151030907751696 26.9162029907762772 H
atom -0.1673898644227648 7.2945930161678572 26.9407927973967567 C
atom -0.8872502618639699 7.9998232512686052 27.3550930440281412 H
atom -0.5568801667140688 5.9865627327291540 26.6455129722565580 C
atom -1.5923799532947094 5.6811031255893356 26.7869530446276904 H
atom 0.3867597478847946 5.0586531398915122 26.2035827959300072 C
atom 0.0838597709124730 4.0314328599473530 25.9983832198124567 H
atom -4.8521999429621347 3.4988932573875897 24.7204430109208317 C
atom 2.0597799579429066 3.8271032511639689 23.4690532102148310 C
atom 1.6646099966506209 5.1362130561122221 23.1509229839452750 C
atom 1.9112499693046372 5.9537727960537765 23.8193727570257785 H
atom 0.9895497418557505 5.4353230659024856 21.9650230964642290 C
atom 0.6991298802173667 6.4663629469524944 21.7648332409990850 H
atom -2.5856799740417258 3.2112531636362975 42.8144332100861362 C
atom -3.1509798793530757 3.4155827724196817 41.9055327210063737 H
atom -2.1419601203890499 1.8976231269554076 43.0461731400223044 C
atom 1.8531801789262035 2.8166928144905810 22.4859530802014298 C
atom -2.4016199691317790 0.8627530612553379 42.0935329794261719 C
atom -2.9598897552007881 1.1175428921292478 41.1918128959165486 H
atom -1.9859899001702528 -0.4162169264880414 42.3165732360206732 C
atom -2.2057598416034687 -1.2063372405302288 41.6009028637327134 H
atom -1.2498700037572630 -0.7574769594541357 43.4970331817771196 C
atom 2.4192198739779216 -0.8664567725520744 21.9893927653651176 C
atom -3.5939398345313820 7.9112627991946924 43.0257130323530674 H
atom 3.0909299078527122 -1.1798969012044065 23.1600629327261309 C
atom 0.8701001576468064 8.5617628812928732 23.3937629350502299 H
atom 3.4612899248049231 -0.1713967942611542 24.0546031398428291 C
atom -3.6317897636941714 -0.4639370689822674 24.9569730529670295 H
atom 3.1503401041055046 1.1792232586153588 23.8261229415237317 C
atom 2.3520498231094216 1.4882929126856441 22.6872229863533370 C
atom -4.0970598300698491 2.2480231087023603 24.7711429502877465 C
atom -3.0982198531054399 2.0916131422215849 25.7361827912818129 C
atom -2.0684097798927819 1.0112031441348124 25.7181230314396885 C
atom -1.0868701934733360 1.0104829339512349 24.7171827501265504 C
atom -1.1323101113672427 1.7465927759972240 23.9172927664229356 H
atom -0.0435200629739809 0.0887530725785569 24.7439432416647627 C
atom 0.7113501695409175 0.1108329916893331 23.9640831445581988 H
atom 0.0422902551366305 -0.8509868059784509 25.7694728004211697 C
atom -1.6032302028201104 9.2202530100933604 25.7816629266437189 H
atom -0.9301797630709615 -0.8713072108641026 26.7710729657158808 C
atom -3.3535298651773338 9.1741330994838783 27.5792228764991911 H
atom -1.9726599262361497 0.0564430996331604 26.7482230937637340 C
atom -2.7168799382112403 0.0557128350825823 27.5470129180465904 H
atom -2.9798497904060457 3.0437029585187316 26.8041428371356503 C
atom -2.0074300440334572 2.8966927668292017 27.7955129485957357 C
atom -1.2689997599191460 2.1123330759012124 27.6847529833614630 H
atom -1.9631802456861089 3.6814731536395895 28.9587831018442294 C
atom -1.0049498570375794 3.4357931084455360 29.9840930520582525 C
atom 0.0241897486492943 2.3772032034591528 29.7619328171649187 C
atom 0.9361599947275434 2.4976529325960626 28.6967927566661771 C
atom 0.9385799221114520 3.4112731532168499 28.1051530556990095 H
atom 1.8153201953964133 1.4614630989328468 28.3791028058358066 C
atom 2.4854797400442519 1.5694628758368210 27.5276529697981118 H
atom 1.8253401658784398 0.2905431599284453 29.1409131974672491 C
atom 2.4972899170296157 -0.5291068299948362 28.8815327542916975 H
atom 0.9763102572246538 0.1839631654804137 30.2449927630053317 C
atom 0.9983600132344279 -0.7026171580349824 30.8808028857382588 H
atom 0.0819002277017551 1.2127630393981057 30.5465830263815086 C
atom -0.5849699514052187 1.1123627764150386 31.3989028297533679 H
atom -3.6223899889029259 2.9315031020945121 34.0986231385576559 C
atom -4.4645300102751699 3.2130931127974280 32.9790831316357398 C
atom -5.1826599982378321 4.0237132227996479 33.0713430615887063 H
atom -4.3596698417614714 2.5212632321997899 31.8012431422487971 C
atom -4.9770899980728860 2.7882532436632488 30.9450031941010764 H
atom -3.4428099982576126 1.4424328280865499 31.6898328182227367 C
atom -3.3835299795986193 0.8952731175533283 30.7504628345359130 H
atom -2.6397200799617160 1.1049230740117213 32.7482131690337397 C
atom -1.9593500610360479 0.2573632196488819 32.6746728829044670 H
atom -2.6489902063363733 1.8596329658318187 33.9652329099136168 C
atom -1.7170297619518644 1.6069328557624254 34.9868428530713729 C
atom -0.6895300764405280 0.5388129983909981 34.8173431591100950 C
atom -0.9891301043277735 -0.7990168413061867 35.1193631143812510 C
atom -1.9795699222516925 -1.0466267957871664 35.5042929674719119 H
atom -0.0420500086830345 -1.8043768106819533 34.9124331287851533 C
atom -2.7747100113132883 7.9378730044051062 35.1511327973946592 H
atom -4.5425598358588619 -0.1895068259382805 38.3380427509906028 C
atom 1.2166297372756956 -1.4866371171937900 34.3936828259782672 C
atom -0.5319897874379880 8.5006328591057496 34.2013232056978325 H
atom 1.5341900396894776 -0.1558072336379434 34.1127627536239260 C
atom -5.1011100858494700 0.1043230536449768 33.7158629120303033 H
atom 0.5897801722492438 0.8487129315046581 34.3305731518464228 C
atom 0.8428501771888214 1.8842227724522995 34.1123230073619439 H
atom -1.7294400258940077 2.4040732346799532 36.1583829877665650 C
atom -0.7806898469727293 2.2220129904487269 37.1867431154222743 C
atom -0.0343002084343271 1.4445929294600715 37.0520532275490879 H
atom -0.7671000470282392 2.9891627801347589 38.3587129420124313 C
atom 0.1514801515871629 2.7575630821593884 39.4440829180938266 C
atom -6.4480798743275134 1.6853129966595100 39.2234430093264379 C
atom 0.8063999217479735 0.3439530157906538 38.9997529231173701 C
atom -0.2275398504159249 0.0323232023756605 39.1570730744003086 H
atom -5.8647598974648325 -0.5829770700302351 38.5576031382484317 C
atom 1.4449300153432008 -1.6100169005455915 38.3626330867882928 H
atom -3.6230900903525018 6.0946032562783419 40.5616628526278120 C
atom -3.8227100219618677 -0.8947370610390272 37.9237430335364323 H
atom -4.1530700627447681 1.1185128739562114 38.6333231053080155 C
atom -3.1175697469869172 1.4239830646402416 38.4918830329368760 H
atom -5.0967099773436315 2.0464330503380652 39.0752628068243482 C
atom -4.7938100003713098 3.0736528011050135 39.2804528577521097 H
atom 0.1422401883135077 3.6061929328419877 40.5583930666437382 C
atom -6.7697402417687442 3.2779728846986078 41.8097929217167348 C
atom -6.3745697512992487 1.9688630797503541 42.1279130936192985 C
atom -6.6212001987634741 1.1513128649985900 41.4594627913615810 H
atom -5.6995100256815885 1.6697631243270916 43.3138129811003338 C
atom -5.4090801096762036 0.6387131889100823 43.5140028365654814 H
atom -2.1242797806069014 3.8938330265932799 22.4644028674784302 C
atom -1.5589798752955513 3.6895028886326853 23.3733028273809893 H
atom -2.5679901090697870 5.2074630632741696 22.2326629375422620 C
atom -6.5631399335748313 4.2883928465617851 42.7928930517301396 C
atom -2.3083302603270579 6.2423230746072385 23.1853030981383945 C
atom -1.7500599450808383 5.9875332437333286 24.0870231816480214 H
atom -2.7239598001113738 7.5213031167176183 22.9622628415438932 C
atom -2.5041898586781577 8.3114229015825956 23.6779427390216455 H
atom -3.4600897508913642 7.8625530953167120 21.7818028957874468 C
atom -7.1291701034367589 7.9715329084146509 43.2894427830222384 C
atom -1.1160098657502446 -0.8061771381423261 22.2531230452114990 H
atom -7.8008801373115491 8.2849830914339844 42.1187731448384355 C
atom -5.5800498579284330 -1.4566867454302976 41.8850831968813395 H
atom -8.1712401542637600 7.2764829844907313 41.2242429920887403 C
atom -1.0781599365874552 7.5690132048448442 40.3218730789645434 H
atom -7.8602998587541313 5.9258629316142182 41.4527131360408418 C
atom -7.0620000525682585 5.6167927483667226 42.5916130912112365 C
atom -0.6128898702117774 4.8570530271602159 40.5076931272768235 C
atom -1.6117399015431875 5.0134629936409913 39.5426527571055502 C
atom -2.6415399203888450 6.0938729917277641 39.5607130461248886 C
atom -3.5776501724585956 5.3584828306881427 41.3615427819644239 H
atom -4.6664301664848562 7.0163230632840197 40.5348928358998037 C
atom -5.4212998698225441 6.9942431441732440 41.3147629873733706 H
atom -4.7522399554182577 7.9560629418410276 39.5093627479661862 C
atom -3.1067200266387269 -2.1151668198637816 39.4971832052878469 H
atom -3.7797699372106650 7.9763928719164694 38.5077731662156850 C
atom -1.3564198351042926 -2.0690569636213012 37.6996132010653824 H
atom -2.7372897740454771 7.0486330362294165 38.5306129838008360 C
atom -1.9930798164373873 7.0493728259697841 37.7318231595179796 H
atom -1.7300999098755807 4.0613731773438451 38.4746927112517128 C
atom -2.7025201854253798 4.2083828398561645 37.4833231289688271 C
atom -3.4409499403624806 4.9927531143283650 37.5940830942030999 H
atom -2.7467800381397285 3.4236029822229872 36.3200529757203370 C
atom -3.7050098976110477 3.6692930817840415 35.2947430255063210 C
atom -4.7341399781081313 4.7278729324034243 35.5169127855894402 C
atom -5.6461102241863808 4.6074332576335149 36.5820427917211859 C
atom -5.6485301515702888 3.6938130370127276 37.1736830218655570 H
atom -6.5252799500450411 5.6436230912967300 36.8997327425515564 C
atom -7.1954400238700895 5.5356227852155451 37.7511831077664581 H
atom -6.5352898661600660 6.8145430303011318 36.1379329344643239 C
atom -7.2072401464884530 7.6341930202244139 36.3973027940956655 H
atom -5.6862599575062802 6.9211230247491633 35.0338427853820278 C
atom -5.7083102426932655 7.8077028190873490 34.3980331918263076 H
atom -4.7918599823503829 5.8923231508314720 34.7322631055500679 C
atom -4.1249898032434089 5.9927128302703272 33.8799327186339880 H
atom -0.2804930263454168 16.1724831879883091 9.4206100855570405 C
atom 0.5616469950268278 15.8909032316523913 10.5401400381119572 C
atom 1.2797769829894892 15.0802831216501723 10.4478801081589925 H
atom 0.4567868265131288 16.5827331122500325 11.7179900818659011 C
atom 1.0742069828245433 16.3157330464195702 12.5742300300136201 H
atom -0.4600730169907302 17.6615529328190597 11.8293998767147492 C
atom -0.5193630900167242 18.2087131725294924 12.7687598060345717 H
atom -1.2631729896536277 17.9990727412608891 10.7710100007139591 C
atom -1.9435430085792955 18.8466230704339388 10.8445598120330171 H
atom -1.2538928089119696 17.2443628494407903 9.5539897306568680 C
atom -2.1858627784862685 17.4970529051431853 8.5323797874991065 C
atom -3.2133529388078150 18.5651727625146101 8.7018900650046014 C
atom -2.9137529109205693 19.9030131857560058 8.3998600553664460 C
atom -1.9233231473636512 20.1506130858699883 8.0149402566427810 H
atom -3.8608330065653083 20.9083631007647739 8.6068000953295414 C
atom -1.1281730039350544 11.1661228108675026 8.3680898431758237 H
atom -5.1195127525240380 20.5906329324663986 9.1255498689592205 C
atom -3.3708932278103547 10.6033629561668583 9.3178999640498628 H
atom -5.4370730549378203 19.2598030489105518 9.4064598869465623 C
atom 1.1982270706011273 18.9996727616276324 9.8033602577173937 H
atom -4.4926631874975866 18.2552728294009512 9.1886500179012760 C
atom -4.7457432468041647 17.2197629884533079 9.4069001623857531 H
atom -2.1734429893543350 16.6999231097698662 7.3608401819811347 C
atom -3.1221931682756132 16.8819828248238828 6.3324800543254218 C
atom -3.8685828068140156 17.6594028858125363 6.4671699421986046 H
atom -3.1357829682201035 16.1148229807708496 5.1605102277352612 C
atom -4.0543631668355058 16.3464232079234328 4.0751402516538739 C
atom 2.5451968590791711 17.4186828186130995 4.2957801604212573 C
atom -4.7092829369963161 18.7600327451149553 4.5194702466303296 C
atom -3.6753431648324177 19.0716731420741610 4.3621500953473840 H
atom 1.9618768822164903 19.6869728853028434 4.9616300858662639 C
atom -5.3478130305915439 20.7140132449954102 5.1565900829594042 H
atom 0.6396768206105191 19.2935031703881030 5.1811798895798846 C
atom -0.0801830476534755 19.9987328763116352 5.5954801362112638 H
atom 0.2501870474964256 17.9854728869493954 4.8859000644396824 C
atom -0.7853127390842150 17.6800127506323683 5.0273401368108184 H
atom 1.1938269620952890 17.0575627649345449 4.4439698881131333 C
atom 0.8909269851229674 16.0303430141675953 4.2387697828183715 H
atom -4.0451332579288506 15.4978028824306211 2.9608301031039601 C
atom 2.8668471721534012 15.8260128762070007 1.7094397732207474 C
atom 2.4716772108611154 17.1351232103324662 1.3913100761283985 C
atom 2.7183171835151314 17.9526829502740206 2.0597598492089051 H
atom 1.7966169560662451 17.4342332201227279 0.2054101886473556 C
atom 1.5061970944278609 18.4652731011727376 0.0052198040050017 H
atom -1.7786127598312313 15.2101627886793285 21.0548197730920528 C
atom -2.3439131943197919 15.4144929266399231 20.1459198131894937 H
atom -1.3348929061785555 13.8965327519984392 21.2865602322054350 C
atom 2.6602468639594874 14.8156029687108237 0.7263401723845594 C
atom -1.5945527549212846 12.8616632154755806 20.3339200716092989 C
atom -2.1528230701675048 13.1164530463494913 19.4321999880996721 H
atom -1.1789232151369688 11.5826932277322001 20.5569597990265898 C
atom -1.3986931565701850 10.7925729136900141 19.8412899559158404 H
atom -0.4428027895467687 11.2414331947661079 21.7374197447830362 C
atom 3.2262870881884163 11.1324528524909585 0.2297798575482417 C
atom -2.7868731494980983 19.9101729534149356 21.2661001245361945 H
atom 3.8979971220632068 10.8190132530158358 1.4004500249092569 C
atom 1.6771668426800901 20.5606730355131191 1.6341500272333558 H
atom 4.2683571390154178 11.8275128307818793 2.2949902320259548 C
atom -2.8247230786608872 11.5349730852379757 3.1973601451501543 H
atom 3.9574067891387883 13.1781328836583906 2.0665100337068574 C
atom 3.1591170373199158 13.4872030669058880 0.9276100785364635 C
atom -3.2899931450365654 14.2469327337453926 3.0115300424708713 C
atom -2.2911531680721562 14.0905227672646181 3.9765698834649363 C
atom -1.2613430948594977 13.0101127691778462 3.9585101236228137 C
atom -0.2798029792628415 13.0093930881714783 2.9575698423096766 C
atom -0.3252428971567481 13.7455029302174658 2.1576798586060595 H
atom 0.7635471512365136 12.0876632267987993 2.9843298046706797 C
atom 1.5184168545742012 12.1097431459095777 2.2044702367413249 H
atom 0.8493569401699144 11.1479228190645827 4.0098598926042976 C
atom -0.7961629886096159 21.2191631643136027 4.0220500188268460 H
atom -0.1231130780376776 11.1276029433561412 5.0114600578990078 C
atom -2.5464631801440500 21.1730427245269084 5.8196099686823155 H
atom -1.1655932412028658 12.0553532538534043 4.9886101859468601 C
atom -1.9098132531779561 12.0546229893028247 5.7874000102297156 H
atom -2.1727831053727620 15.0426131127389748 5.0445299293187738 C
atom -1.2003628298229629 14.8956029210494449 6.0359000407788637 C
atom -0.4619330748858622 14.1112432301214543 5.9251400755445882 H
atom -1.1561130314756147 15.6803827786826222 7.1991701940273538 C
atom -0.1978831720042956 15.4347027334885674 8.2244801442413777 C
atom 0.8312569628597888 14.3761128285021851 8.0023199093480439 C
atom 1.7432272089380378 14.4965630868163053 6.9371798488493024 C
atom 1.7456471363219463 15.4101827782598821 6.3455401478821365 H
atom 2.6223868804296973 13.4603732531530902 6.6194898980189318 C
atom 3.2925469542547465 13.5683730300570655 5.7680400619812380 H
atom 2.6324068509117238 12.2894527849714787 7.3812997604731638 C
atom 3.3043571312401099 11.4698027950481976 7.1219198464748237 H
atom 1.7833769422579375 12.1828727905234473 8.4853798551884569 C
atom 1.8054272274449223 11.2962929961852616 9.1211899779213859 H
atom 0.8889669127350390 13.2116731936183474 8.7869701185646321 C
atom 0.2220972628052758 13.1112729306352804 9.6392899219364949 H
atom -2.8153227746924316 14.9304127271375435 12.3390102307407812 C