#=======================================================
# FHI-aims file: carreu.xyz
# Created using the Atomic Simulation Environment (ASE)
# Tue May 21 10:01:32 2019
#=======================================================
lattice_vector 7.6158999999999999 0.0000000000000000 0.0000000000000000 
lattice_vector -2.4761630000000001 10.7754530000000006 0.0000000000000000 
lattice_vector -3.2832300000000001 -1.2234570000000000 21.7596130000000016 
atom 2.1956699999999998 5.3970300000000000 9.4206099999999999 C
atom 3.0378099999999999 5.1154500000000001 10.5401399999999992 C
atom 3.7559399999999998 4.3048299999999999 10.4478799999999996 H
atom 2.9329499999999999 5.8072800000000004 11.7179900000000004 C
atom 3.5503700000000000 5.5402800000000001 12.5742300000000000 H
atom 2.0160900000000002 6.8860999999999999 11.8293999999999997 C
atom 1.9568000000000001 7.4332599999999998 12.7687600000000003 H
atom 1.2129900000000000 7.2236200000000004 10.7710100000000004 C
atom 0.5326200000000000 8.0711700000000004 10.8445599999999995 H
atom 1.2222700000000000 6.4689100000000002 9.5539900000000006 C
atom 0.2903000000000000 6.7215999999999996 8.5323799999999999 C
atom -0.7371900000000000 7.7897200000000000 8.7018900000000006 C
atom -0.4375900000000000 9.1275600000000008 8.3998600000000003 C
atom 0.5528400000000000 9.3751599999999993 8.0149399999999993 H
atom -1.3846700000000001 10.1329100000000007 8.6067999999999998 C
atom 1.3479900000000000 0.3906700000000000 8.3680900000000005 H
atom -2.6433499999999999 9.8151799999999998 9.1255500000000005 C
atom -0.8947300000000000 -0.1720900000000000 9.3178999999999998 H
atom -2.9609100000000002 8.4843499999999992 9.4064599999999992 C
atom 3.6743899999999998 8.2242200000000008 9.8033599999999996 H
atom -2.0165000000000002 7.4798200000000001 9.1886500000000009 C
atom -2.2695799999999999 6.4443099999999998 9.4069000000000003 H
atom 0.3027200000000000 5.9244700000000003 7.3608399999999996 C
atom -0.6460300000000000 6.1065300000000002 6.3324800000000003 C
atom -1.3924200000000000 6.8839499999999996 6.4671700000000003 H
atom -0.6596200000000000 5.3393699999999997 5.1605100000000004 C
atom -1.5782000000000000 5.5709700000000000 4.0751400000000002 C
atom 5.0213599999999996 6.6432300000000000 4.2957799999999997 C
atom -2.2331200000000000 7.9845800000000002 4.5194700000000001 C
atom -1.1991799999999999 8.2962199999999999 4.3621499999999997 H
atom 4.4380400000000000 8.9115199999999994 4.9616300000000004 C
atom -2.8716499999999998 9.9385600000000007 5.1565899999999996 H
atom 3.1158399999999999 8.5180500000000006 5.1811800000000003 C
atom 2.3959800000000002 9.2232800000000008 5.5954800000000002 H
atom 2.7263500000000001 7.2100200000000001 4.8859000000000004 C
atom 1.6908500000000000 6.9045600000000000 5.0273399999999997 H
atom 3.6699899999999999 6.2821100000000003 4.4439700000000002 C
atom 3.3670900000000001 5.2548899999999996 4.2387699999999997 H
atom -1.5689700000000000 4.7223499999999996 2.9608300000000001 C
atom 5.3430099999999996 5.0505599999999999 1.7094400000000001 C
atom 4.9478400000000002 6.3596700000000004 1.3913100000000000 C
atom 5.1944800000000004 7.1772299999999998 2.0597599999999998 H
atom 4.2727800000000000 6.6587800000000001 0.2054100000000000 C
atom 3.9823599999999999 7.6898200000000001 0.0052200000000000 H
atom 0.6975500000000000 4.4347099999999999 21.0548199999999994 C
atom 0.1322500000000000 4.6390399999999996 20.1459200000000003 H
atom 1.1412700000000000 3.1210800000000001 21.2865600000000015 C
atom 5.1364099999999997 4.0401499999999997 0.7263400000000000 C
atom 0.8816100000000000 2.0862099999999999 20.3339199999999991 C
atom 0.3233400000000000 2.3410000000000002 19.4322000000000017 H
atom 1.2972399999999999 0.8072400000000000 20.5569600000000001 C
atom 1.0774699999999999 0.0171200000000000 19.8412900000000008 H
atom 2.0333600000000001 0.4659800000000000 21.7374200000000002 C
atom 5.7024499999999998 0.3570000000000000 0.2297800000000000 C
atom -0.3107100000000000 9.1347199999999997 21.2661000000000016 H
atom 6.3741599999999998 0.0435600000000000 1.4004500000000000 C
atom 4.1533300000000004 9.7852200000000007 1.6341500000000000 H
atom 6.7445199999999996 1.0520600000000000 2.2949899999999999 C
atom -0.3485600000000000 0.7595200000000000 3.1973600000000002 H
atom 6.4335699999999996 2.4026800000000001 2.0665100000000001 C
atom 5.6352799999999998 2.7117499999999999 0.9276100000000000 C
atom -0.8138300000000001 3.4714800000000001 3.0115300000000000 C
atom 0.1850100000000000 3.3150700000000000 3.9765700000000002 C
atom 1.2148200000000000 2.2346599999999999 3.9585100000000000 C
atom 2.1963599999999999 2.2339400000000000 2.9575700000000000 C
atom 2.1509200000000002 2.9700500000000001 2.1576800000000000 H
atom 3.2397100000000001 1.3122100000000001 2.9843299999999999 C
atom 3.9945800000000000 1.3342900000000000 2.2044700000000002 H
atom 3.3255200000000000 0.3724700000000000 4.0098599999999998 C
atom 1.6799999999999999 10.4437099999999994 4.0220500000000001 H
atom 2.3530500000000001 0.3521500000000000 5.0114599999999996 C
atom -0.0703000000000000 10.3975899999999992 5.8196099999999999 H
atom 1.3105700000000000 1.2799000000000000 4.9886100000000004 C
atom 0.5663500000000000 1.2791699999999999 5.7873999999999999 H
atom 0.3033800000000000 4.2671599999999996 5.0445300000000000 C
atom 1.2758000000000000 4.1201499999999998 6.0358999999999998 C
atom 2.0142300000000000 3.3357899999999998 5.9251399999999999 H
atom 1.3200499999999999 4.9049300000000002 7.1991699999999996 C
atom 2.2782800000000001 4.6592500000000001 8.2244799999999998 C
atom 3.3074200000000000 3.6006600000000000 8.0023199999999992 C
atom 4.2193899999999998 3.7211099999999999 6.9371799999999997 C
atom 4.2218099999999996 4.6347300000000002 6.3455399999999997 H
atom 5.0985500000000004 2.6849200000000000 6.6194899999999999 C
atom 5.7687099999999996 2.7929200000000001 5.7680400000000001 H
atom 5.1085700000000003 1.5140000000000000 7.3813000000000004 C
atom 5.7805200000000001 0.6943500000000000 7.1219200000000003 H
atom 4.2595400000000003 1.4074199999999999 8.4853799999999993 C
atom 4.2815899999999996 0.5208400000000000 9.1211900000000004 H
atom 3.3651300000000002 2.4362200000000001 8.7869700000000002 C
atom 2.6982599999999999 2.3358200000000000 9.6392900000000008 H
atom -0.3391600000000000 4.1549600000000000 12.3390100000000000 C
atom -1.1813000000000000 4.4365500000000004 11.2194699999999994 C
atom -1.8994300000000000 5.2471699999999997 11.3117300000000007 H
atom -1.0764400000000001 3.7447200000000000 10.0416299999999996 C
atom -1.6938599999999999 4.0117099999999999 9.1853899999999999 H
atom -0.1595800000000000 2.6658900000000001 9.9302200000000003 C
atom -0.1003000000000000 2.1187299999999998 8.9908500000000000 H
atom 0.6435100000000000 2.3283800000000001 10.9885999999999999 C
atom 1.3238799999999999 1.4808200000000000 10.9150600000000004 H
atom 0.6342400000000000 3.0830899999999999 12.2056199999999997 C
atom 1.5662000000000000 2.8303900000000000 13.2272300000000005 C
atom 2.5937000000000001 1.7622700000000000 13.0577299999999994 C
atom 2.2940999999999998 0.4244400000000000 13.3597500000000000 C
atom 1.3036600000000000 0.1768300000000000 13.7446800000000007 H
atom 3.2411799999999999 -0.5809200000000000 13.1528200000000002 C
atom 0.5085200000000000 9.1613299999999995 13.3915199999999999 H
atom -1.2593300000000001 1.0339499999999999 16.5784300000000009 C
atom 4.4998600000000000 -0.2631800000000000 12.6340699999999995 C
atom 2.7512400000000001 9.7240900000000003 12.4417100000000005 H
atom 4.8174200000000003 1.0676500000000000 12.3531499999999994 C
atom -1.8178799999999999 1.3277800000000000 11.9562500000000007 H
atom 3.8730099999999998 2.0721699999999998 12.5709599999999995 C
atom 4.1260800000000000 3.1076800000000002 12.3527100000000001 H
atom 1.5537900000000000 3.6275300000000001 14.3987700000000007 C
atom 2.5025400000000002 3.4454699999999998 15.4271300000000000 C
atom 3.2489300000000001 2.6680500000000000 15.2924399999999991 H
atom 2.5161300000000000 4.2126200000000003 16.5991000000000000 C
atom 3.4347099999999999 3.9810200000000000 17.6844700000000010 C
atom -3.1648499999999999 2.9087700000000001 17.4638300000000015 C
atom 4.0896299999999997 1.5674100000000000 17.2401400000000002 C
atom 3.0556899999999998 1.2557799999999999 17.3974599999999988 H
atom -2.5815299999999999 0.6404800000000000 16.7979899999999986 C
atom 4.7281599999999999 -0.3865600000000000 16.6030200000000008 H
atom -0.3398600000000000 7.3180600000000000 18.8020500000000013 C
atom -0.5394800000000000 0.3287200000000000 16.1641300000000001 H
atom -0.8698399999999999 2.3419699999999999 16.8737099999999991 C
atom 0.1656600000000000 2.6474400000000000 16.7322699999999998 H
atom -1.8134800000000000 3.2698900000000002 17.3156500000000015 C
atom -1.5105800000000000 4.2971100000000000 17.5208399999999997 H
atom 3.4254699999999998 4.8296500000000000 18.7987800000000007 C
atom -3.4865100000000000 4.5014300000000000 20.0501800000000010 C
atom -3.0913400000000002 3.1923200000000000 20.3683000000000014 C
atom -3.3379699999999999 2.3747699999999998 19.6998500000000014 H
atom -2.4162800000000000 2.8932199999999999 21.5542000000000016 C
atom -2.1258499999999998 1.8621700000000001 21.7543900000000008 H
atom 1.1589499999999999 5.1172899999999997 0.7047900000000000 C
atom 1.7242500000000001 4.9129600000000000 1.6136900000000001 H
atom 0.7152400000000000 6.4309200000000004 0.4730500000000000 C
atom -3.2799100000000001 5.5118499999999999 21.0332800000000013 C
atom 0.9749000000000000 7.4657799999999996 1.4256899999999999 C
atom 1.5331699999999999 7.2109899999999998 2.3274100000000000 H
atom 0.5592700000000000 8.7447599999999994 1.2026500000000000 C
atom 0.7790400000000000 9.5348799999999994 1.9183300000000001 H
atom -0.1768600000000000 9.0860099999999999 0.0221900000000000 C
atom -3.8459400000000001 9.1949900000000007 21.5298300000000005 C
atom 2.1672199999999999 0.4172800000000000 0.4935100000000000 H
atom -4.5176499999999997 9.5084400000000002 20.3591599999999993 C
atom -2.2968199999999999 -0.2332300000000000 20.1254700000000000 H
atom -4.8880100000000004 8.4999400000000005 19.4646299999999997 C
atom 2.2050700000000001 8.7924699999999998 18.5622599999999984 H
atom -4.5770700000000000 7.1493200000000003 19.6931000000000012 C
atom -3.7787700000000002 6.8402500000000002 20.8320000000000007 C
atom 2.6703399999999999 6.0805100000000003 18.7480800000000016 C
atom 1.6714899999999999 6.2369199999999996 17.7830399999999997 C
atom 0.6416900000000000 7.3173300000000001 17.8011000000000017 C
atom -0.2944200000000000 6.5819400000000003 19.6019299999999994 H
atom -1.3832000000000000 8.2397799999999997 18.7752799999999986 C
atom -2.1380699999999999 8.2177000000000007 19.5551500000000011 H
atom -1.4690099999999999 9.1795200000000001 17.7497499999999988 C
atom 0.1765100000000000 -0.8917100000000000 17.7375700000000016 H
atom -0.4965400000000000 9.1998499999999996 16.7481599999999986 C
atom 1.9268099999999999 -0.8456000000000000 15.9399999999999995 H
atom 0.5459400000000000 8.2720900000000004 16.7710000000000008 C
atom 1.2901499999999999 8.2728300000000008 15.9722100000000005 H
atom 1.5531299999999999 5.2848300000000004 16.7150800000000004 C
atom 0.5807099999999999 5.4318400000000002 15.7237100000000005 C
atom -0.1577200000000000 6.2162100000000002 15.8344699999999996 H
atom 0.5364500000000000 4.6470599999999997 14.5604399999999998 C
atom -0.4217800000000000 4.8927500000000004 13.5351300000000005 C
atom -1.4509099999999999 5.9513299999999996 13.7573000000000008 C
atom -2.3628800000000001 5.8308900000000001 14.8224300000000007 C
atom -2.3653000000000000 4.9172700000000003 15.4140700000000006 H
atom -3.2420499999999999 6.8670799999999996 15.1401199999999996 C
atom -3.9122100000000000 6.7590800000000000 15.9915699999999994 H
atom -3.2520600000000002 8.0380000000000003 14.3783200000000004 C
atom -3.9240100000000000 8.8576499999999996 14.6376899999999992 H
atom -2.4030300000000002 8.1445799999999995 13.2742299999999993 C
atom -2.4250799999999999 9.0311599999999999 12.6384200000000000 H
atom -1.5086299999999999 7.1157800000000000 12.9726499999999998 C
atom -0.8417600000000000 7.2161700000000000 12.1203199999999995 H
