&control
prefix = 'CARREU'
calculation = 'scf'
restart_mode = 'from_scratch'
wf_collect = .false.
tstress = .true.
tprnfor = .true.
outdir = './'
wfcdir = './'
pseudo_dir = './'
/
&system
ibrav = 0
nat = 180
ntyp = 2
ecutwfc = 50.0
/
&electrons
electron_maxstep = 100
conv_thr = 1.0d-10
mixing_mode = 'plain'
mixing_beta = 0.7
mixing_ndim = 8
diagonalization = 'david'
diago_david_ndim = 4
diago_full_acc = .true.
/
CELL_PARAMETERS angstrom
7.615900   0.000000   0.000000
-2.476163   10.775453   0.000000
-3.283230   -1.223457   21.759613
ATOMIC_SPECIES
   H  1.0079 H.UPF
   C 12.0107 C.UPF
ATOMIC_POSITIONS angstrom
C	2.195670	5.397030	9.420610
C	3.037810	5.115450	10.540140
H	3.755940	4.304830	10.447880
C	2.932950	5.807280	11.717990
H	3.550370	5.540280	12.574230
C	2.016090	6.886100	11.829400
H	1.956800	7.433260	12.768760
C	1.212990	7.223620	10.771010
H	0.532620	8.071170	10.844560
C	1.222270	6.468910	9.553990
C	0.290300	6.721600	8.532380
C	-0.737190	7.789720	8.701890
C	-0.437590	9.127560	8.399860
H	0.552840	9.375160	8.014940
C	-1.384670	10.132910	8.606800
H	1.347990	0.390670	8.368090
C	-2.643350	9.815180	9.125550
H	-0.894730	-0.172090	9.317900
C	-2.960910	8.484350	9.406460
H	3.674390	8.224220	9.803360
C	-2.016500	7.479820	9.188650
H	-2.269580	6.444310	9.406900
C	0.302720	5.924470	7.360840
C	-0.646030	6.106530	6.332480
H	-1.392420	6.883950	6.467170
C	-0.659620	5.339370	5.160510
C	-1.578200	5.570970	4.075140
C	5.021360	6.643230	4.295780
C	-2.233120	7.984580	4.519470
H	-1.199180	8.296220	4.362150
C	4.438040	8.911520	4.961630
H	-2.871650	9.938560	5.156590
C	3.115840	8.518050	5.181180
H	2.395980	9.223280	5.595480
C	2.726350	7.210020	4.885900
H	1.690850	6.904560	5.027340
C	3.669990	6.282110	4.443970
H	3.367090	5.254890	4.238770
C	-1.568970	4.722350	2.960830
C	5.343010	5.050560	1.709440
C	4.947840	6.359670	1.391310
H	5.194480	7.177230	2.059760
C	4.272780	6.658780	0.205410
H	3.982360	7.689820	0.005220
C	0.697550	4.434710	21.054820
H	0.132250	4.639040	20.145920
C	1.141270	3.121080	21.286560
C	5.136410	4.040150	0.726340
C	0.881610	2.086210	20.333920
H	0.323340	2.341000	19.432200
C	1.297240	0.807240	20.556960
H	1.077470	0.017120	19.841290
C	2.033360	0.465980	21.737420
C	5.702450	0.357000	0.229780
H	-0.310710	9.134720	21.266100
C	6.374160	0.043560	1.400450
H	4.153330	9.785220	1.634150
C	6.744520	1.052060	2.294990
H	-0.348560	0.759520	3.197360
C	6.433570	2.402680	2.066510
C	5.635280	2.711750	0.927610
C	-0.813830	3.471480	3.011530
C	0.185010	3.315070	3.976570
C	1.214820	2.234660	3.958510
C	2.196360	2.233940	2.957570
H	2.150920	2.970050	2.157680
C	3.239710	1.312210	2.984330
H	3.994580	1.334290	2.204470
C	3.325520	0.372470	4.009860
H	1.680000	10.443710	4.022050
C	2.353050	0.352150	5.011460
H	-0.070300	10.397590	5.819610
C	1.310570	1.279900	4.988610
H	0.566350	1.279170	5.787400
C	0.303380	4.267160	5.044530
C	1.275800	4.120150	6.035900
H	2.014230	3.335790	5.925140
C	1.320050	4.904930	7.199170
C	2.278280	4.659250	8.224480
C	3.307420	3.600660	8.002320
C	4.219390	3.721110	6.937180
H	4.221810	4.634730	6.345540
C	5.098550	2.684920	6.619490
H	5.768710	2.792920	5.768040
C	5.108570	1.514000	7.381300
H	5.780520	0.694350	7.121920
C	4.259540	1.407420	8.485380
H	4.281590	0.520840	9.121190
C	3.365130	2.436220	8.786970
H	2.698260	2.335820	9.639290
C	-0.339160	4.154960	12.339010
C	-1.181300	4.436550	11.219470
H	-1.899430	5.247170	11.311730
C	-1.076440	3.744720	10.041630
H	-1.693860	4.011710	9.185390
C	-0.159580	2.665890	9.930220
H	-0.100300	2.118730	8.990850
C	0.643510	2.328380	10.988600
H	1.323880	1.480820	10.915060
C	0.634240	3.083090	12.205620
C	1.566200	2.830390	13.227230
C	2.593700	1.762270	13.057730
C	2.294100	0.424440	13.359750
H	1.303660	0.176830	13.744680
C	3.241180	-0.580920	13.152820
H	0.508520	9.161330	13.391520
C	-1.259330	1.033950	16.578430
C	4.499860	-0.263180	12.634070
H	2.751240	9.724090	12.441710
C	4.817420	1.067650	12.353150
H	-1.817880	1.327780	11.956250
C	3.873010	2.072170	12.570960
H	4.126080	3.107680	12.352710
C	1.553790	3.627530	14.398770
C	2.502540	3.445470	15.427130
H	3.248930	2.668050	15.292440
C	2.516130	4.212620	16.599100
C	3.434710	3.981020	17.684470
C	-3.164850	2.908770	17.463830
C	4.089630	1.567410	17.240140
H	3.055690	1.255780	17.397460
C	-2.581530	0.640480	16.797990
H	4.728160	-0.386560	16.603020
C	-0.339860	7.318060	18.802050
H	-0.539480	0.328720	16.164130
C	-0.869840	2.341970	16.873710
H	0.165660	2.647440	16.732270
C	-1.813480	3.269890	17.315650
H	-1.510580	4.297110	17.520840
C	3.425470	4.829650	18.798780
C	-3.486510	4.501430	20.050180
C	-3.091340	3.192320	20.368300
H	-3.337970	2.374770	19.699850
C	-2.416280	2.893220	21.554200
H	-2.125850	1.862170	21.754390
C	1.158950	5.117290	0.704790
H	1.724250	4.912960	1.613690
C	0.715240	6.430920	0.473050
C	-3.279910	5.511850	21.033280
C	0.974900	7.465780	1.425690
H	1.533170	7.210990	2.327410
C	0.559270	8.744760	1.202650
H	0.779040	9.534880	1.918330
C	-0.176860	9.086010	0.022190
C	-3.845940	9.194990	21.529830
H	2.167220	0.417280	0.493510
C	-4.517650	9.508440	20.359160
H	-2.296820	-0.233230	20.125470
C	-4.888010	8.499940	19.464630
H	2.205070	8.792470	18.562260
C	-4.577070	7.149320	19.693100
C	-3.778770	6.840250	20.832000
C	2.670340	6.080510	18.748080
C	1.671490	6.236920	17.783040
C	0.641690	7.317330	17.801100
H	-0.294420	6.581940	19.601930
C	-1.383200	8.239780	18.775280
H	-2.138070	8.217700	19.555150
C	-1.469010	9.179520	17.749750
H	0.176510	-0.891710	17.737570
C	-0.496540	9.199850	16.748160
H	1.926810	-0.845600	15.940000
C	0.545940	8.272090	16.771000
H	1.290150	8.272830	15.972210
C	1.553130	5.284830	16.715080
C	0.580710	5.431840	15.723710
H	-0.157720	6.216210	15.834470
C	0.536450	4.647060	14.560440
C	-0.421780	4.892750	13.535130
C	-1.450910	5.951330	13.757300
C	-2.362880	5.830890	14.822430
H	-2.365300	4.917270	15.414070
C	-3.242050	6.867080	15.140120
H	-3.912210	6.759080	15.991570
C	-3.252060	8.038000	14.378320
H	-3.924010	8.857650	14.637690
C	-2.403030	8.144580	13.274230
H	-2.425080	9.031160	12.638420
C	-1.508630	7.115780	12.972650
H	-0.841760	7.216170	12.120320
K_POINTS crystal
   10
  0.000000000  0.000000000  0.000000000   1.0
  0.000000000  0.250000000  0.000000000   2.0
  0.000000000  0.500000000  0.000000000   1.0
  0.250000000  0.000000000  0.000000000   2.0
  0.250000000  0.250000000  0.000000000   2.0
  0.250000000  0.500000000  0.000000000   2.0
  0.250000000  0.750000000  0.000000000   2.0
  0.500000000  0.000000000  0.000000000   1.0
  0.500000000  0.250000000  0.000000000   2.0
  0.500000000  0.500000000  0.000000000   1.0
