#=======================================================
# FHI-aims file: supercell.in
# Created using the Atomic Simulation Environment (ASE)
# Tue May 21 16:13:01 2019
#=======================================================
lattice_vector 60.9271999999999991 0.0000000000000000 0.0000000000000000 
lattice_vector -19.8093040000000009 86.2036240000000049 0.0000000000000000 
lattice_vector -6.5664600000000002 -2.4469140000000000 43.5192260000000033 
atom 2.1956700000000002 5.3970300000000000 9.4206099999999999 C
atom 3.0378100000000003 5.1154500000000001 10.5401399999999992 C
atom 3.7559400000000003 4.3048299999999999 10.4478799999999996 H
atom 2.9329499999999995 5.8072800000000004 11.7179900000000021 C
atom 3.5503699999999996 5.5402800000000001 12.5742300000000000 H
atom 2.0160900000000002 6.8860999999999999 11.8293999999999997 C
atom 1.9568000000000001 7.4332599999999998 12.7687600000000021 H
atom 1.2129899999999998 7.2236200000000004 10.7710100000000004 C
atom 0.5326200000000001 8.0711700000000004 10.8445599999999995 H
atom 1.2222700000000002 6.4689100000000002 9.5539900000000006 C
atom 0.2902999999999998 6.7215999999999996 8.5323799999999999 C
atom -0.7371900000000001 7.7897200000000000 8.7018900000000006 C
atom -0.4375899999999998 9.1275600000000008 8.3998600000000003 C
atom 0.5528399999999999 9.3751599999999993 8.0149399999999993 H
atom -1.3846700000000001 10.1329100000000007 8.6067999999999998 C
atom 1.3479900000000002 0.3906699999999999 8.3680900000000005 H
atom -2.6433499999999999 9.8151799999999998 9.1255500000000005 C
atom -0.8947300000000000 -0.1720900000000000 9.3178999999999998 H
atom -2.9609100000000002 8.4843499999999992 9.4064599999999992 C
atom 3.6743900000000012 8.2242200000000008 9.8033599999999996 H
atom -2.0165000000000002 7.4798200000000001 9.1886500000000009 C
atom -2.2695799999999999 6.4443099999999998 9.4069000000000003 H
atom 0.3027200000000002 5.9244700000000012 7.3608399999999996 C
atom -0.6460299999999999 6.1065299999999993 6.3324800000000003 C
atom -1.3924200000000000 6.8839499999999996 6.4671700000000012 H
atom -0.6596200000000000 5.3393699999999997 5.1605100000000004 C
atom -1.5781999999999998 5.5709699999999991 4.0751400000000002 C
atom 5.0213600000000005 6.6432300000000000 4.2957799999999997 C
atom -2.2331200000000000 7.9845800000000002 4.5194700000000001 C
atom -1.1991799999999999 8.2962199999999999 4.3621499999999997 H
atom 4.4380400000000000 8.9115199999999994 4.9616300000000004 C
atom -2.8716499999999994 9.9385600000000007 5.1565899999999996 H
atom 3.1158400000000004 8.5180500000000006 5.1811800000000003 C
atom 2.3959799999999998 9.2232800000000008 5.5954800000000011 H
atom 2.7263500000000005 7.2100200000000001 4.8859000000000004 C
atom 1.6908500000000000 6.9045599999999991 5.0273399999999997 H
atom 3.6699900000000003 6.2821100000000003 4.4439700000000002 C
atom 3.3670899999999997 5.2548899999999996 4.2387699999999997 H
atom -1.5689700000000000 4.7223499999999996 2.9608300000000005 C
atom 5.3430099999999996 5.0505599999999999 1.7094400000000001 C
atom 4.9478400000000002 6.3596700000000004 1.3913100000000000 C
atom 5.1944800000000004 7.1772299999999998 2.0597599999999998 H
atom 4.2727800000000000 6.6587800000000001 0.2054100000000000 C
atom 3.9823599999999995 7.6898200000000001 0.0052200000000000 H
atom 0.6975499999999999 4.4347099999999999 21.0548199999999994 C
atom 0.1322500000000005 4.6390399999999987 20.1459200000000003 H
atom 1.1412699999999998 3.1210800000000001 21.2865600000000015 C
atom 5.1364099999999997 4.0401499999999997 0.7263400000000000 C
atom 0.8816099999999994 2.0862099999999999 20.3339199999999991 C
atom 0.3233400000000003 2.3410000000000006 19.4322000000000017 H
atom 1.2972399999999999 0.8072400000000001 20.5569600000000001 C
atom 1.0774700000000004 0.0171200000000000 19.8412900000000008 H
atom 2.0333599999999996 0.4659800000000001 21.7374200000000002 C
atom 5.7024499999999998 0.3570000000000000 0.2297800000000000 C
atom -0.3107100000000001 9.1347199999999997 21.2661000000000016 H
atom 6.3741599999999998 0.0435600000000000 1.4004500000000000 C
atom 4.1533300000000004 9.7852200000000007 1.6341500000000000 H
atom 6.7445199999999996 1.0520600000000000 2.2949899999999999 C
atom -0.3485600000000000 0.7595200000000000 3.1973600000000006 H
atom 6.4335699999999996 2.4026800000000001 2.0665100000000001 C
atom 5.6352799999999998 2.7117499999999999 0.9276100000000000 C
atom -0.8138299999999999 3.4714800000000001 3.0115299999999996 C
atom 0.1850100000000001 3.3150700000000000 3.9765700000000002 C
atom 1.2148200000000000 2.2346599999999999 3.9585100000000000 C
atom 2.1963599999999999 2.2339400000000000 2.9575700000000005 C
atom 2.1509200000000002 2.9700500000000001 2.1576800000000000 H
atom 3.2397100000000005 1.3122100000000001 2.9843299999999999 C
atom 3.9945800000000000 1.3342900000000000 2.2044700000000002 H
atom 3.3255200000000000 0.3724700000000000 4.0098599999999998 C
atom 1.6800000000000002 10.4437099999999994 4.0220500000000001 H
atom 2.3530499999999996 0.3521500000000000 5.0114599999999996 C
atom -0.0702999999999999 10.3975899999999992 5.8196099999999999 H
atom 1.3105700000000002 1.2798999999999998 4.9886100000000004 C
atom 0.5663500000000000 1.2791700000000001 5.7873999999999999 H
atom 0.3033800000000002 4.2671599999999996 5.0445300000000000 C
atom 1.2758000000000000 4.1201499999999998 6.0359000000000007 C
atom 2.0142300000000000 3.3357899999999994 5.9251399999999999 H
atom 1.3200499999999997 4.9049300000000002 7.1991699999999996 C
atom 2.2782800000000001 4.6592500000000001 8.2244799999999998 C
atom 3.3074200000000005 3.6006600000000000 8.0023199999999992 C
atom 4.2193899999999998 3.7211099999999995 6.9371799999999997 C
atom 4.2218099999999996 4.6347300000000002 6.3455399999999997 H
atom 5.0985500000000004 2.6849200000000000 6.6194899999999999 C
atom 5.7687099999999996 2.7929200000000001 5.7680400000000001 H
atom 5.1085700000000003 1.5140000000000000 7.3813000000000004 C
atom 5.7805200000000001 0.6943500000000001 7.1219200000000003 H
atom 4.2595400000000003 1.4074199999999997 8.4853799999999993 C
atom 4.2815899999999996 0.5208400000000001 9.1211900000000004 H
atom 3.3651300000000002 2.4362200000000005 8.7869700000000002 C
atom 2.6982600000000003 2.3358200000000000 9.6392900000000008 H
atom -0.3391599999999998 4.1549600000000000 12.3390100000000000 C
atom -1.1813000000000000 4.4365500000000004 11.2194699999999976 C
atom -1.8994300000000000 5.2471699999999997 11.3117300000000007 H
atom -1.0764400000000001 3.7447199999999996 10.0416299999999996 C
atom -1.6938599999999999 4.0117099999999999 9.1853899999999999 H
atom -0.1595800000000000 2.6658900000000001 9.9302200000000003 C
atom -0.1002999999999999 2.1187299999999998 8.9908500000000000 H
atom 0.6435099999999999 2.3283800000000001 10.9885999999999981 C
atom 1.3238799999999997 1.4808199999999998 10.9150600000000004 H
atom 0.6342399999999999 3.0830899999999999 12.2056199999999997 C
atom 1.5662000000000003 2.8303900000000000 13.2272300000000005 C
atom 2.5936999999999988 1.7622699999999998 13.0577299999999994 C
atom 2.2941000000000003 0.4244400000000001 13.3597500000000000 C
atom 1.3036600000000000 0.1768300000000000 13.7446800000000007 H
atom 3.2411799999999995 -0.5809200000000000 13.1528200000000020 C
atom 0.5085199999999995 9.1613299999999995 13.3915199999999981 H
atom -1.2593300000000001 1.0339499999999999 16.5784300000000009 C
atom 4.4998600000000000 -0.2631800000000000 12.6340699999999995 C
atom 2.7512400000000010 9.7240900000000003 12.4417099999999987 H
atom 4.8174200000000003 1.0676500000000000 12.3531499999999994 C
atom -1.8178799999999999 1.3277800000000000 11.9562500000000025 H
atom 3.8730099999999985 2.0721699999999998 12.5709599999999995 C
atom 4.1260800000000000 3.1076800000000002 12.3527099999999983 H
atom 1.5537899999999996 3.6275300000000006 14.3987700000000007 C
atom 2.5025400000000007 3.4454700000000003 15.4271299999999982 C
atom 3.2489300000000005 2.6680500000000000 15.2924399999999991 H
atom 2.5161300000000000 4.2126200000000003 16.5991000000000000 C
atom 3.4347100000000004 3.9810199999999996 17.6844700000000010 C
atom -3.1648499999999999 2.9087699999999996 17.4638300000000015 C
atom 4.0896299999999997 1.5674100000000000 17.2401400000000002 C
atom 3.0556899999999998 1.2557799999999999 17.3974599999999988 H
atom -2.5815299999999999 0.6404800000000002 16.7979899999999986 C
atom 4.7281599999999999 -0.3865600000000000 16.6030200000000008 H
atom -0.3398599999999996 7.3180600000000000 18.8020500000000013 C
atom -0.5394800000000000 0.3287200000000000 16.1641300000000001 H
atom -0.8698399999999998 2.3419699999999999 16.8737099999999991 C
atom 0.1656599999999999 2.6474400000000005 16.7322699999999998 H
atom -1.8134800000000002 3.2698900000000006 17.3156500000000015 C
atom -1.5105800000000000 4.2971100000000000 17.5208399999999997 H
atom 3.4254699999999993 4.8296500000000000 18.7987800000000007 C
atom -3.4865100000000000 4.5014300000000009 20.0501800000000010 C
atom -3.0913400000000002 3.1923200000000000 20.3683000000000014 C
atom -3.3379699999999999 2.3747699999999998 19.6998500000000014 H
atom -2.4162800000000000 2.8932199999999999 21.5542000000000016 C
atom -2.1258499999999998 1.8621699999999999 21.7543900000000008 H
atom 1.1589499999999999 5.1172899999999997 0.7047900000000000 C
atom 1.7242499999999998 4.9129600000000000 1.6136900000000003 H
atom 0.7152400000000001 6.4309200000000004 0.4730500000000000 C
atom -3.2799100000000001 5.5118499999999999 21.0332800000000013 C
atom 0.9748999999999998 7.4657799999999996 1.4256899999999997 C
atom 1.5331699999999999 7.2109900000000007 2.3274100000000000 H
atom 0.5592699999999998 8.7447599999999994 1.2026500000000000 C
atom 0.7790400000000002 9.5348799999999994 1.9183300000000001 H
atom -0.1768600000000000 9.0860099999999999 0.0221900000000000 C
atom -3.8459400000000001 9.1949900000000007 21.5298300000000005 C
atom 2.1672199999999999 0.4172800000000000 0.4935100000000000 H
atom -4.5176499999999997 9.5084400000000002 20.3591599999999993 C
atom -2.2968199999999999 -0.2332300000000000 20.1254700000000000 H
atom -4.8880100000000004 8.4999400000000005 19.4646299999999997 C
atom 2.2050700000000005 8.7924699999999998 18.5622599999999984 H
atom -4.5770700000000000 7.1493199999999995 19.6931000000000012 C
atom -3.7787700000000002 6.8402500000000011 20.8320000000000007 C
atom 2.6703399999999995 6.0805100000000003 18.7480800000000016 C
atom 1.6714900000000001 6.2369199999999996 17.7830399999999997 C
atom 0.6416899999999993 7.3173300000000001 17.8011000000000017 C
atom -0.2944199999999999 6.5819400000000003 19.6019299999999994 H
atom -1.3832000000000000 8.2397799999999997 18.7752799999999986 C
atom -2.1380699999999999 8.2177000000000007 19.5551500000000011 H
atom -1.4690099999999999 9.1795200000000001 17.7497499999999988 C
atom 0.1765100000000002 -0.8917100000000000 17.7375700000000016 H
atom -0.4965399999999994 9.1998499999999996 16.7481599999999986 C
atom 1.9268100000000001 -0.8456000000000000 15.9399999999999995 H
atom 0.5459399999999996 8.2720900000000004 16.7710000000000008 C
atom 1.2901500000000001 8.2728300000000008 15.9722100000000005 H
atom 1.5531300000000003 5.2848300000000012 16.7150800000000004 C
atom 0.5807099999999993 5.4318400000000002 15.7237100000000023 C
atom -0.1577200000000010 6.2162099999999993 15.8344699999999996 H
atom 0.5364500000000001 4.6470599999999997 14.5604399999999981 C
atom -0.4217800000000003 4.8927500000000004 13.5351299999999988 C
atom -1.4509099999999999 5.9513299999999996 13.7573000000000008 C
atom -2.3628800000000001 5.8308900000000001 14.8224300000000007 C
atom -2.3653000000000000 4.9172700000000003 15.4140700000000006 H
atom -3.2420499999999999 6.8670800000000005 15.1401199999999996 C
atom -3.9122100000000000 6.7590800000000000 15.9915699999999994 H
atom -3.2520600000000002 8.0380000000000003 14.3783199999999987 C
atom -3.9240100000000000 8.8576499999999996 14.6376899999999992 H
atom -2.4030300000000002 8.1445799999999995 13.2742299999999975 C
atom -2.4250799999999999 9.0311599999999999 12.6384200000000000 H
atom -1.5086299999999999 7.1157800000000009 12.9726499999999998 C
atom -0.8417600000000000 7.2161700000000000 12.1203199999999995 H
atom -1.0875599999999999 4.1735730000000002 31.1802230000000016 C
atom -0.2454199999999997 3.8919930000000003 32.2997530000000026 C
atom 0.4727100000000002 3.0813730000000001 32.2074929999999995 H
atom -0.3502800000000006 4.5838230000000006 33.4776030000000020 C
atom 0.2671399999999995 4.3168230000000003 34.3338430000000017 H
atom -1.2671399999999999 5.6626430000000001 33.5890130000000013 C
atom -1.3264300000000000 6.2098030000000000 34.5283730000000020 H
atom -2.0702400000000001 6.0001630000000006 32.5306230000000056 C
atom -2.7506100000000000 6.8477130000000006 32.6041730000000030 H
atom -2.0609599999999997 5.2454530000000004 31.3136030000000005 C
atom -2.9929300000000003 5.4981429999999998 30.2919930000000015 C
atom -4.0204200000000005 6.5662630000000002 30.4615030000000004 C
atom -3.7208199999999998 7.9041030000000010 30.1594730000000020 C
atom -2.7303900000000003 8.1517029999999995 29.7745530000000009 H
atom -4.6679000000000004 8.9094530000000010 30.3664130000000014 C
atom -1.9352399999999998 -0.8327870000000002 30.1277030000000039 H
atom -5.9265799999999995 8.5917230000000000 30.8851630000000021 C
atom -4.1779600000000006 -1.3955470000000001 31.0775130000000033 H
atom -6.2441399999999998 7.2608929999999994 31.1660730000000008 C
atom 0.3911600000000011 7.0007630000000010 31.5629729999999995 H
atom -5.2997300000000003 6.2563630000000003 30.9482630000000043 C
atom -5.5528100000000000 5.2208530000000000 31.1665130000000019 H
atom -2.9805099999999998 4.7010130000000014 29.1204530000000013 C
atom -3.9292600000000002 4.8830729999999996 28.0920930000000020 C
atom -4.6756500000000001 5.6604929999999998 28.2267830000000046 H
atom -3.9428500000000000 4.1159129999999999 26.9201230000000038 C
atom -4.8614300000000004 4.3475129999999993 25.8347530000000027 C
atom 1.7381300000000004 5.4197730000000002 26.0553930000000022 C
atom -5.5163500000000001 6.7611230000000004 26.2790830000000000 C
atom -4.4824099999999998 7.0727630000000001 26.1217630000000014 H
atom 1.1548099999999999 7.6880629999999996 26.7212430000000012 C
atom -6.1548799999999995 8.7151030000000009 26.9162030000000030 H
atom -0.1673899999999997 7.2945930000000008 26.9407930000000029 C
atom -0.8872500000000003 7.9998230000000010 27.3550930000000037 H
atom -0.5568799999999996 5.9865630000000003 26.6455130000000011 C
atom -1.5923800000000001 5.6811029999999993 26.7869530000000005 H
atom 0.3867600000000002 5.0586530000000005 26.2035830000000018 C
atom 0.0838599999999996 4.0314329999999998 25.9983830000000005 H
atom -4.8521999999999998 3.4988929999999998 24.7204430000000031 C
atom 2.0597799999999995 3.8271030000000001 23.4690530000000024 C
atom 1.6646100000000001 5.1362130000000006 23.1509230000000024 C
atom 1.9112500000000003 5.9537730000000000 23.8193730000000023 H
atom 0.9895499999999999 5.4353230000000003 21.9650230000000022 C
atom 0.6991299999999994 6.4663630000000003 21.7648330000000030 H
atom -2.5856800000000000 3.2112530000000001 42.8144330000000011 C
atom -3.1509799999999997 3.4155829999999989 41.9055330000000055 H
atom -2.1419600000000001 1.8976230000000001 43.0461730000000031 C
atom 1.8531799999999996 2.8166929999999999 22.4859530000000021 C
atom -2.4016200000000008 0.8627529999999999 42.0935330000000008 C
atom -2.9598899999999997 1.1175430000000006 41.1918130000000033 H
atom -1.9859900000000001 -0.4162169999999999 42.3165730000000053 C
atom -2.2057599999999997 -1.2063370000000000 41.6009030000000024 H
atom 2.4192199999999997 -0.8664570000000000 21.9893930000000033 C
atom -3.5939400000000004 7.9112629999999999 43.0257130000000032 H
atom 3.0909299999999997 -1.1798970000000000 23.1600630000000010 C
atom 0.8701000000000003 8.5617630000000009 23.3937629999999999 H
atom 3.4612899999999995 -0.1713970000000000 24.0546030000000002 C
atom -3.6317900000000001 -0.4639370000000000 24.9569730000000014 H
atom 3.1503399999999995 1.1792230000000001 23.8261230000000026 C
atom 2.3520499999999998 1.4882929999999999 22.6872230000000030 C
atom -4.0970599999999999 2.2480229999999999 24.7711430000000021 C
atom -3.0982200000000000 2.0916129999999997 25.7361830000000005 C
atom -2.0684100000000001 1.0112029999999999 25.7181230000000021 C
atom -1.0868700000000002 1.0104830000000000 24.7171830000000021 C
atom -1.1323099999999999 1.7465930000000001 23.9172930000000008 H
atom -0.0435199999999996 0.0887530000000001 24.7439430000000016 C
atom 0.7113499999999999 0.1108330000000000 23.9640830000000022 H
atom 0.0422899999999999 -0.8509869999999999 25.7694730000000014 C
atom -1.6032299999999999 9.2202529999999996 25.7816630000000018 H
atom -0.9301800000000005 -0.8713070000000001 26.7710730000000012 C
atom -3.3535300000000001 9.1741329999999994 27.5792230000000025 H
atom -1.9726599999999999 0.0564429999999998 26.7482230000000030 C
atom -2.7168800000000002 0.0557130000000001 27.5470129999999997 H
atom -2.9798499999999999 3.0437029999999998 26.8041430000000034 C
atom -2.0074300000000003 2.8966930000000000 27.7955130000000032 C
atom -1.2690000000000001 2.1123329999999996 27.6847530000000006 H
atom -1.9631800000000004 3.6814730000000004 28.9587830000000004 C
atom -1.0049500000000000 3.4357930000000003 29.9840930000000014 C
atom 0.0241900000000004 2.3772029999999997 29.7619329999999991 C
atom 0.9361599999999997 2.4976529999999997 28.6967929999999996 C
atom 0.9385799999999995 3.4112730000000004 28.1051530000000014 H
atom 1.8153200000000003 1.4614630000000000 28.3791030000000006 C
atom 2.4854799999999995 1.5694630000000001 27.5276530000000008 H
atom 1.8253400000000002 0.2905430000000000 29.1409130000000012 C
atom 2.4972900000000000 -0.5291069999999999 28.8815330000000010 H
atom 0.9763100000000002 0.1839629999999997 30.2449930000000009 C
atom 0.9983599999999995 -0.7026169999999999 30.8808030000000002 H
atom 0.0819000000000001 1.2127630000000005 30.5465830000000018 C
atom -0.5849699999999998 1.1123630000000000 31.3989030000000042 H
atom -3.6223899999999998 2.9315030000000002 34.0986230000000035 C
atom -4.4645299999999999 3.2130930000000006 32.9790830000000028 C
atom -5.1826600000000003 4.0237129999999999 33.0713429999999988 H
atom -4.3596700000000004 2.5212629999999994 31.8012429999999995 C
atom -4.9770900000000005 2.7882530000000001 30.9450029999999998 H
atom -3.4428100000000001 1.4424330000000001 31.6898330000000001 C
atom -3.3835299999999999 0.8952729999999998 30.7504630000000034 H
atom -2.6397200000000001 1.1049230000000001 32.7482129999999998 C
atom -1.9593500000000004 0.2573629999999998 32.6746729999999985 H
atom -2.6489900000000004 1.8596329999999999 33.9652329999999978 C
atom -1.7170299999999998 1.6069329999999999 34.9868430000000004 C
atom -0.6895300000000013 0.5388129999999998 34.8173430000000010 C
atom -0.9891299999999998 -0.7990169999999999 35.1193629999999999 C
atom -1.9795700000000001 -1.0466270000000000 35.5042930000000041 H
atom -0.0420500000000006 -1.8043770000000001 34.9124330000000072 C
atom -2.7747100000000007 7.9378729999999997 35.1511330000000015 H
atom -4.5425599999999999 -0.1895070000000001 38.3380429999999990 C
atom 1.2166299999999999 -1.4866370000000000 34.3936830000000029 C
atom -0.5319899999999991 8.5006330000000005 34.2013230000000021 H
atom 1.5341900000000002 -0.1558070000000000 34.1127630000000011 C
atom -5.1011100000000003 0.1043229999999999 33.7158630000000059 H
atom 0.5897799999999984 0.8487129999999998 34.3305730000000011 C
atom 0.8428499999999999 1.8842230000000002 34.1123230000000035 H
atom -1.7294400000000005 2.4040730000000003 36.1583830000000006 C
atom -0.7806899999999994 2.2220130000000005 37.1867429999999999 C
atom -0.0342999999999996 1.4445930000000000 37.0520530000000008 H
atom -0.7671000000000001 2.9891630000000005 38.3587130000000016 C
atom 0.1514800000000003 2.7575629999999993 39.4440830000000062 C
atom -6.4480800000000000 1.6853129999999996 39.2234430000000032 C
atom 0.8063999999999996 0.3439530000000000 38.9997529999999983 C
atom -0.2275400000000003 0.0323229999999999 39.1570729999999969 H
atom -5.8647600000000004 -0.5829769999999999 38.5576030000000003 C
atom 1.4449299999999998 -1.6100170000000000 38.3626330000000024 H
atom -3.6230899999999995 6.0946030000000002 40.5616630000000029 C
atom -3.8227099999999998 -0.8947370000000000 37.9237430000000018 H
atom -4.1530699999999996 1.1185129999999999 38.6333230000000043 C
atom -3.1175700000000002 1.4239830000000004 38.4918830000000014 H
atom -5.0967099999999999 2.0464330000000004 39.0752630000000067 C
atom -4.7938100000000006 3.0736530000000002 39.2804530000000014 H
atom 0.1422399999999993 3.6061930000000002 40.5583930000000024 C
atom -6.7697400000000005 3.2779730000000011 41.8097929999999991 C
atom -6.3745700000000003 1.9688630000000000 42.1279130000000066 C
atom -6.6212000000000000 1.1513129999999998 41.4594629999999995 H
atom -5.6995100000000001 1.6697629999999999 43.3138130000000032 C
atom -2.1242800000000002 3.8938329999999999 22.4644030000000008 C
atom -1.5589800000000003 3.6895030000000002 23.3733030000000035 H
atom -2.5679900000000000 5.2074630000000006 22.2326630000000023 C
atom -6.5631400000000006 4.2883930000000001 42.7928930000000065 C
atom -2.3083300000000002 6.2423229999999998 23.1853030000000011 C
atom -1.7500600000000002 5.9875330000000009 24.0870230000000021 H
atom -2.7239600000000004 7.5213029999999996 22.9622630000000001 C
atom -2.5041899999999999 8.3114229999999996 23.6779430000000026 H
atom -3.4600900000000001 7.8625530000000001 21.7818030000000000 C
atom -7.1291700000000002 7.9715330000000009 43.2894430000000057 C
atom -1.1160100000000002 -0.8061770000000000 22.2531230000000022 H
atom -7.8008799999999994 8.2849830000000004 42.1187730000000045 C
atom -5.5800500000000000 -1.4566870000000001 41.8850830000000016 H
atom -8.1712400000000009 7.2764830000000007 41.2242430000000013 C
atom -1.0781599999999996 7.5690130000000000 40.3218729999999965 H
atom -7.8603000000000005 5.9258629999999997 41.4527130000000028 C
atom -7.0620000000000003 5.6167930000000013 42.5916130000000024 C
atom -0.6128900000000006 4.8570530000000005 40.5076930000000033 C
atom -1.6117400000000000 5.0134629999999998 39.5426530000000014 C
atom -2.6415400000000009 6.0938730000000003 39.5607130000000069 C
atom -3.5776500000000002 5.3584830000000006 41.3615429999999975 H
atom -4.6664300000000001 7.0163229999999999 40.5348929999999967 C
atom -5.4213000000000005 6.9942430000000009 41.3147629999999992 H
atom -4.7522400000000005 7.9560630000000003 39.5093630000000005 C
atom -3.1067199999999997 -2.1151670000000000 39.4971830000000068 H
atom -3.7797699999999996 7.9763929999999998 38.5077730000000003 C
atom -1.3564200000000000 -2.0690569999999999 37.6996129999999994 H
atom -2.7372900000000007 7.0486330000000006 38.5306130000000024 C
atom -1.9930800000000000 7.0493730000000010 37.7318230000000057 H
atom -1.7300999999999997 4.0613730000000015 38.4746930000000020 C
atom -2.7025200000000007 4.2083830000000004 37.4833230000000057 C
atom -3.4409500000000013 4.9927529999999996 37.5940829999999977 H
atom -2.7467800000000002 3.4236030000000000 36.3200530000000015 C
atom -3.7050100000000006 3.6692930000000006 35.2947429999999969 C
atom -4.7341400000000000 4.7278729999999998 35.5169130000000024 C
atom -5.6461100000000002 4.6074330000000003 36.5820429999999988 C
atom -5.6485300000000001 3.6938130000000005 37.1736830000000040 H
atom -6.5252800000000004 5.6436230000000007 36.8997329999999977 C
atom -7.1954399999999996 5.5356230000000002 37.7511829999999975 H
atom -6.5352899999999998 6.8145430000000005 36.1379330000000039 C
atom -7.2072400000000005 7.6341929999999998 36.3973030000000008 H
atom -5.6862600000000008 6.9211229999999997 35.0338429999999974 C
atom -5.7083100000000000 7.8077030000000001 34.3980329999999981 H
atom -4.7918599999999998 5.8923230000000011 34.7322630000000032 C
atom -4.1249900000000004 5.9927130000000002 33.8799330000000012 H
atom -0.2804929999999999 16.1724829999999997 9.4206099999999999 C
atom 0.5616470000000002 15.8909030000000016 10.5401399999999992 C
atom 1.2797770000000002 15.0802830000000014 10.4478799999999996 H
atom 0.4567869999999994 16.5827330000000011 11.7179900000000021 C
atom 1.0742069999999995 16.3157330000000016 12.5742300000000000 H
atom -0.4600730000000000 17.6615530000000014 11.8293999999999997 C
atom -0.5193630000000000 18.2087129999999995 12.7687600000000021 H
atom -1.2631730000000003 17.9990730000000028 10.7710100000000004 C
atom -1.9435430000000000 18.8466230000000010 10.8445599999999995 H
atom -1.2538929999999999 17.2443629999999999 9.5539900000000006 C
atom -2.1858630000000003 17.4970530000000011 8.5323799999999999 C
atom -3.2133530000000001 18.5651730000000015 8.7018900000000006 C
atom -2.9137529999999998 19.9030130000000014 8.3998600000000003 C
atom -1.9233230000000003 20.1506129999999999 8.0149399999999993 H
atom -3.8608330000000004 20.9083630000000014 8.6067999999999998 C
atom -1.1281729999999999 11.1661230000000007 8.3680900000000005 H
atom -5.1195129999999995 20.5906330000000004 9.1255500000000005 C
atom -3.3708930000000001 10.6033629999999999 9.3178999999999998 H
atom -5.4370729999999998 19.2598029999999980 9.4064599999999992 C
atom 1.1982270000000010 18.9996730000000014 9.8033599999999996 H
atom -4.4926630000000003 18.2552730000000025 9.1886500000000009 C
atom -4.7457430000000000 17.2197630000000004 9.4069000000000003 H
atom -2.1734429999999998 16.6999230000000018 7.3608399999999996 C
atom -3.1221930000000002 16.8819829999999982 6.3324800000000003 C
atom -3.8685830000000001 17.6594030000000011 6.4671700000000012 H
atom -3.1357830000000000 16.1148230000000012 5.1605100000000004 C
atom -4.0543630000000004 16.3464230000000015 4.0751400000000002 C
atom 2.5451970000000004 17.4186830000000015 4.2957799999999997 C
atom -4.7092830000000001 18.7600330000000000 4.5194700000000001 C
atom -3.6753429999999998 19.0716730000000005 4.3621499999999997 H
atom 1.9618769999999999 19.6869730000000018 4.9616300000000004 C
atom -5.3478129999999995 20.7140130000000013 5.1565899999999996 H
atom 0.6396770000000003 19.2935030000000012 5.1811800000000003 C
atom -0.0801830000000003 19.9987330000000014 5.5954800000000011 H
atom 0.2501870000000004 17.9854729999999989 4.8859000000000004 C
atom -0.7853130000000001 17.6800129999999989 5.0273399999999997 H
atom 1.1938270000000002 17.0575630000000018 4.4439700000000002 C
atom 0.8909269999999996 16.0303430000000020 4.2387699999999997 H
atom -4.0451329999999999 15.4978030000000011 2.9608300000000005 C
atom 2.8668469999999995 15.8260129999999997 1.7094400000000001 C
atom 2.4716770000000001 17.1351230000000001 1.3913100000000000 C
atom 2.7183170000000003 17.9526830000000004 2.0597599999999998 H
atom 1.7966169999999999 17.4342329999999990 0.2054100000000000 C
atom 1.5061969999999993 18.4652729999999998 0.0052200000000000 H
atom -1.7786130000000002 15.2101630000000014 21.0548199999999994 C
atom -2.3439129999999997 15.4144930000000002 20.1459200000000003 H
atom -1.3348930000000003 13.8965330000000016 21.2865600000000015 C
atom 2.6602469999999996 14.8156029999999994 0.7263400000000000 C
atom -1.5945530000000008 12.8616630000000001 20.3339199999999991 C
atom -2.1528229999999997 13.1164530000000017 19.4322000000000017 H
atom -1.1789230000000002 11.5826930000000008 20.5569600000000001 C
atom -1.3986929999999997 10.7925730000000009 19.8412900000000008 H
atom -0.4428030000000005 11.2414330000000007 21.7374200000000002 C
atom 3.2262869999999997 11.1324529999999999 0.2297800000000000 C
atom -2.7868730000000004 19.9101730000000003 21.2661000000000016 H
atom 3.8979969999999997 10.8190130000000000 1.4004500000000000 C
atom 1.6771670000000003 20.5606730000000013 1.6341500000000000 H
atom 4.2683570000000000 11.8275129999999997 2.2949899999999999 C
atom -2.8247230000000001 11.5349730000000008 3.1973600000000006 H
atom 3.9574069999999995 13.1781330000000008 2.0665100000000001 C
atom 3.1591169999999997 13.4872030000000009 0.9276100000000000 C
atom -3.2899929999999999 14.2469330000000003 3.0115299999999996 C
atom -2.2911530000000000 14.0905230000000010 3.9765700000000002 C
atom -1.2613430000000001 13.0101130000000005 3.9585100000000000 C
atom -0.2798030000000002 13.0093930000000011 2.9575700000000005 C
atom -0.3252429999999999 13.7455030000000011 2.1576800000000000 H
atom 0.7635470000000004 12.0876630000000009 2.9843299999999999 C
atom 1.5184169999999999 12.1097429999999999 2.2044700000000002 H
atom 0.8493569999999999 11.1479230000000005 4.0098599999999998 C
atom -0.7961630000000000 21.2191630000000018 4.0220500000000001 H
atom -0.1231130000000005 11.1276030000000006 5.0114599999999996 C
atom -2.5464630000000001 21.1730429999999998 5.8196099999999999 H
atom -1.1655929999999999 12.0553530000000002 4.9886100000000004 C
atom -1.9098130000000002 12.0546230000000012 5.7873999999999999 H
atom -2.1727829999999999 15.0426129999999993 5.0445300000000000 C
atom -1.2003630000000001 14.8956030000000013 6.0359000000000007 C
atom -0.4619330000000001 14.1112430000000000 5.9251399999999999 H
atom -1.1561130000000004 15.6803830000000008 7.1991699999999996 C
atom -0.1978830000000000 15.4347030000000007 8.2244799999999998 C
atom 0.8312570000000004 14.3761130000000001 8.0023199999999992 C
atom 1.7432269999999996 14.4965630000000001 6.9371799999999997 C
atom 1.7456469999999995 15.4101830000000000 6.3455399999999997 H
atom 2.6223870000000002 13.4603730000000006 6.6194899999999999 C
atom 3.2925469999999994 13.5683730000000011 5.7680400000000001 H
atom 2.6324070000000002 12.2894530000000000 7.3813000000000004 C
atom 3.3043570000000000 11.4698030000000006 7.1219200000000003 H
atom 1.7833770000000002 12.1828730000000007 8.4853799999999993 C
atom 1.8054269999999994 11.2962930000000004 9.1211900000000004 H
atom 0.8889670000000001 13.2116730000000011 8.7869700000000002 C
atom 0.2220970000000002 13.1112730000000006 9.6392900000000008 H
atom -2.8153229999999998 14.9304130000000015 12.3390100000000000 C
atom -3.6574629999999999 15.2120030000000011 11.2194699999999976 C
atom -4.3755930000000003 16.0226229999999994 11.3117300000000007 H