#=======================================================
# FHI-aims file: cube_file_geometry.in
# Created using the Atomic Simulation Environment (ASE)
# Tue May 21 16:33:11 2019
#=======================================================
lattice_vector 60.9271999999999991 0.0000000000000000 0.0000000000000000 
lattice_vector -19.8093040000000009 86.2036240000000049 0.0000000000000000 
lattice_vector -6.5664600000000002 -2.4469140000000000 43.5192260000000033 
atom 2.1956691460550002 5.3970280678930003 9.4206063370209989 C
atom 3.0378088323330004 5.1154482236000005 10.5401358441060005 C
atom 3.7559385345460004 4.3048284361500002 10.4478759508640007 H
atom 2.9329487055440002 5.8072778289129996 11.7179854191840001 C
atom 3.5503686161790000 5.5402778693240000 12.5742250266269995 H
atom 2.0160892268660002 6.8860972202110000 11.8293951697019999 C
atom 1.9567991774319999 7.4332572422020000 12.7687547252430011 H
atom 1.2129895737629999 7.2236168943510002 10.7710057148429996 C
atom 0.5326198255619999 8.0711668862770001 10.8445554968960014 H
atom 1.2222697508120002 6.4689073028360005 9.5539859290480003 C
atom 0.2902996228990000 6.7215972579910002 8.5323763923970013 C
atom -0.7371895993990000 7.7897166903490005 8.7018866024530013 C
atom -0.4375896907250000 9.1275565812529997 8.3998567129949997 C
atom 0.5528396787320000 9.3751563828449989 8.0149370674339995 H
atom -1.3846694095190000 10.1329060962249997 8.6067966706150010 C
atom 1.3479895057639999 0.3906696828430000 8.3680865134460003 H
atom -2.6433491838159999 9.8151760543539996 9.1255462378299992 C
atom -0.8947298257150000 -0.1720899479310000 9.3178962563829995 H
atom -2.9609088306930000 8.4843467003460002 9.4064561440409999 C
atom 3.6743886546069997 8.2242165165709995 9.8033563568820004 H
atom -2.0164993390410002 7.4798168805469993 9.1886463616640004 C
atom -2.2695792976450000 6.4443074516370009 9.4068964193050011 H
atom 0.3027199362660000 5.9244677798020007 7.3608372530440001 C
atom -0.6460298651400000 6.1065274224130004 6.3324775345810007 C
atom -1.3924192066840002 6.8839471740600002 6.4671673688600002 H
atom -0.6596196596770001 5.3393678836190004 5.1605081743270000 C
atom -1.5781994927820000 5.5709680186160009 4.0751386301229999 C
atom 5.0213579071150001 6.6432272026449999 4.2957784510960000 C
atom -2.2331190023450000 7.9845765954129995 4.5194684482970002 C
atom -1.1991796415940001 8.2962168683679991 4.3621483596130002 H
atom 4.4380381623599998 8.9115163667639994 4.9616281115940000 C
atom -2.8716488418639998 9.9385557886119997 5.1565880311110002 H
atom 3.1158386268680003 8.5180468084140006 5.1811778279469998 C
atom 2.3959790450420000 9.2232762337210001 5.5954779097250000 H
atom 2.7263490087349997 7.2100170454510000 4.8858981203010003 C
atom 1.6908491050110002 6.9045570306790003 5.0273381363920002 H
atom 3.6699885478520002 6.2821072926590009 4.4439681198220002 C
atom 3.3670886914060003 5.2548879506310007 4.2387680961780001 H
atom -1.5689695875479999 4.7223480307959997 2.9608289249660000 C
atom 5.3430080922020000 5.0505578939749993 1.7094390930210002 C
atom 4.9478382881509999 6.3596677071949994 1.3913095225150001 C
atom 5.1944781626650007 7.1772271218229999 2.0597590296140003 H
atom 4.2727783019680006 6.6587775979670001 0.2054101069130000 C
atom 3.9823585558900003 7.6898170687579999 0.0052198019280000 H
atom 0.6975494795060001 4.4347080514990003 21.0548113952110008 C
atom 0.1322497991320000 4.6390381081549998 20.1459117969669990 H
atom 1.1412696857760001 3.1210785375220000 21.2865517621129996 C
atom 5.1364078662159995 4.0401483885289995 0.7263398833680000 C
atom 0.8816094111770001 2.0862094127819999 20.3339119805799982 C
atom 0.3233398472480000 2.3409991422730001 19.4321922558719997 H
atom 1.2972393147560000 0.8072399339510000 20.5569516192480002 C
atom 1.0774694607710000 0.0171199343040000 19.8412820609080001 H
atom 2.0333594474379999 0.4659800367750000 21.7374110952899997 C
atom 5.7024478652130002 0.3569997378640000 0.2297797661170000 C
atom -0.3107099797890000 9.1347163460629996 21.2660916625850014 H
atom 6.3741576318090001 0.0435597339320000 1.4004494676590000 C
atom 4.1533282361120003 9.7852161693220001 1.6341493769920001 H
atom 6.7445175013920000 1.0520594395850000 2.2949893188310004 C
atom -0.3485598938910000 0.7595198104449999 3.1973588728950002 H
atom 6.4335672752450002 2.4026789550390002 2.0665092114260002 C
atom 5.6352778410719999 2.7117490153050001 0.9276097094330000 C
atom -0.8138297751320001 3.4714783798419999 3.0115288441589998 C
atom 0.1850098043860000 3.3150684755979998 3.9765683011560000 C
atom 1.2148194678290001 2.2346589074150001 3.9585085485000002 C
atom 2.1963591928630000 2.2339392266950000 2.9575686654690001 C
atom 2.1509192930500003 2.9700487758369998 2.1576790000479997 H
atom 3.2397089082049999 1.3122097320860000 2.9843286171820003 C
atom 3.9945783111740001 1.3342896424110000 2.2044693595650000 H
atom 3.3255186629940003 0.3724696982820000 4.0098582970490000 C
atom 1.6799993889800000 10.4437060361040004 4.0220484184209999 H
atom 2.3530490317400004 0.3521498306590000 5.0114580637990009 C
atom -0.0703001060960000 10.3975856146689996 5.8196076530130005 H
atom 1.3105692833860001 1.2798992428200000 4.9886082009389998 C
atom 0.5663495675420001 1.2791695077370000 5.7873977073770000 H
atom 0.3033798199850000 4.2671584422280002 5.0445279220600003 C
atom 1.2757997086010000 4.1201483090350006 6.0358976390460004 C
atom 2.0142291697110002 3.3357889302100001 5.9251377178840006 H
atom 1.3200494893410000 4.9049278543980002 7.1991673294199998 C
atom 2.2782789675249999 4.6592479069619994 8.2244768716549999 C
atom 3.3074186928859999 3.6006584231970002 8.0023167251610001 C
atom 4.2193885760840004 3.7211086335829999 6.9371770884900004 C
atom 4.2218085025049996 4.6347279614899994 6.3455376229409994 H
atom 5.0985478977509997 2.6849186830509999 6.6194872640710001 C
atom 5.7687077049140001 2.7929189461579997 5.7680377668320002 H
atom 5.1085678642460000 1.5139992099649999 7.3812968233950000 C
atom 5.7805178772000003 0.6943495461870000 7.1219170126059996 H
atom 4.2595382934280002 1.4074192579260001 8.4853764787879999 C
atom 4.2815880406640003 0.5208398163650000 9.1211863485269991 H
atom 3.3651286197980004 2.4362192516530001 8.7869666221589995 C
atom 2.6982587060439998 2.3358190286200000 9.6392860863859990 H
atom -0.3391601228400000 4.1549581012720003 12.3390053209500010 C
atom -1.1812992799410000 4.4365479999280009 11.2194657595020004 C
atom -1.8994289821540002 5.2471677873779994 11.3117256527440002 H
atom -1.0764396823290001 3.7447183946150004 10.0416262387869999 C
atom -1.6938590637870001 4.0117082998409996 9.1853861021669996 H
atom -0.1595796744740000 2.6658889489540001 9.9302159590919992 C
atom -0.1003002085800000 2.1187289269630001 8.9908463491880006 H
atom 0.6435099242660001 2.3283793291769999 10.9885953595879986 C
atom 1.3238796724670001 1.4808192828880000 10.9150556318980012 H
atom 0.6342398015799999 3.0830889206920005 12.2056151453829997 C
atom 1.5661993459529999 2.8303889111739999 13.2272246820340005 C
atom 2.5936991517910002 1.7622694788160000 13.0577250555180004 C
atom 2.2940992431170000 0.4244396422750000 13.3597448906130012 C
atom 1.3036592901200001 0.1768297863200000 13.7446745905370005 H
atom 3.2411789619109999 -0.5809199270600000 13.1528149873560007 C
atom 0.5085200466280000 9.1613265406849997 13.3915145609849997 H
atom -1.2593296036530002 1.0339494151140001 16.5784232464840002 C
atom 4.4998582070310000 -0.2631798308260000 12.6340648909640016 C
atom 2.7512388489299999 9.7240861714589997 12.4417048180480005 H
atom 4.8174178539080001 1.0676495231820000 12.3531449303900001 C
atom -1.8178791022150000 1.3277797069570001 11.9562452467260005 H
atom 3.8730083622559999 2.0721692886179999 12.5709552419440005 C
atom 4.1260782664970002 3.1076787175280001 12.3527051843029998 H
atom 1.5537896161260001 3.6275284437260003 14.3987643505639991 C
atom 2.5025388883550002 3.4454688011150001 15.4271240690270002 C
atom 3.2489287590760001 2.6680490494679998 15.2924337055710016 H
atom 2.5161292120690000 4.2126182855460002 16.5990934292810017 C
atom 3.4347085159970003 3.9810181505490001 17.6844629734850010 C
atom -3.1648488839000000 2.9087690208830002 17.4638231525119991 C
atom 4.0896285547369997 1.5674095737520000 17.2401331553109998 C
atom 3.0556886648089998 1.2557793551600001 17.3974532439949989 H
atom -2.5815291391449997 0.6404798567640000 16.7979835463770009 C
atom 4.7281578650789999 -0.3865600942610000 16.6030135724969981 H
atom -0.3398596948340000 7.3180569968330005 18.8020424633249981 C
atom -0.5394795470129999 0.3287199898070000 16.1641236938829991 H
atom -0.8698394563430000 2.3419691237140001 16.8737034833070005 C
atom 0.1656599182040000 2.6474391928490002 16.7322634672160007 H
atom -1.8134795246370001 3.2698889308690000 17.3156430089720033 C
atom -1.5105791390140002 4.2971082728970007 17.5208329782530008 H
atom 3.4254685564000003 4.8296481927319999 18.7987726786419991 C
atom -3.4865085941730003 4.5014282751900003 20.0501720357730022 C
atom -3.0913387901220002 3.1923189911470002 20.3682920810930028 C
atom -3.3379686102730002 2.3747691017050001 19.6998420448170037 H
atom -2.4162788039390000 2.8932186255610004 21.5541914966950010 C
atom -2.1258490034979998 1.8621691004070002 21.7543812725030001 H
atom 1.1589494893460000 5.1172881720290002 0.7047896792200000 C
atom 1.7242491697200002 4.9129581153729998 1.6136892774639999 H
atom 0.7152398666159999 6.4309176860060004 0.4730498414950000 C
atom -3.2799088973640003 5.5118478349990001 21.0332717746029978 C
atom 0.9748996120380000 7.4657772855600006 1.4256896230279998 C
atom 1.5331691759670001 7.2109870268920000 2.3274088185589998 H
atom 0.5592697084590000 8.7447562895769995 1.2026494551830000 C
atom 0.7790395624440001 9.5348762892240018 1.9183290678860001 H
atom -0.1768599494090000 9.0860061323899988 0.0221899791410000 C
atom -3.8459383128210001 9.1949864313010004 21.5298213083140020 C
atom 2.1672190030039999 0.4172798774650001 0.4935099410230000 H
atom -4.5176480794170004 9.5084359604190016 20.3591521359489995 C
atom -2.2968192128969998 -0.2332300001570000 20.1254617518020034 H
atom -4.8880079490000004 8.4999367839430011 19.4646223391400000 C
atom 2.2050689171060003 8.7924663587200005 18.5622527850759980 H
atom -4.5770683063930004 7.1493172684889998 19.6930923921819989 C
atom -3.7787682886799998 6.8402472082230004 20.8319918941749975 C
atom 2.6703387983469997 6.0805077893229997 18.7480727594489984 C
atom 1.6714891644659999 6.2369176935670003 17.7830327732750000 C
atom 0.6416895553860000 7.3173272617500000 17.8010930551080016 C
atom -0.2944197950210000 6.5819373933280003 19.6019220743830012 H
atom -1.3831993558130002 8.2397769662560005 18.7752724572489988 C
atom -2.1380692879590000 8.2176965267540005 19.5551422984060004 H
atom -1.4690096397790000 9.1795164708830015 17.7497427773820000 C
atom 0.1765101634120000 -0.8917098125760000 17.7375627103729983 H
atom -0.4965400085250000 9.1998463928690004 16.7481530649950017 C
atom 1.9268091293110001 -0.8455994455040000 15.9399934214180004 H
atom 0.5459397398290000 8.2720869263450005 16.7709934026689993 C
atom 1.2901494013099999 8.2728267157910000 15.9722038962309991 H
atom 1.5531292032299999 5.2848277269370003 16.7150731523709979 C
atom 0.5807098437910000 5.4318378601299999 15.7237039645620005 C
atom -0.1577201464960000 6.2162072933179999 15.8344638857240003 H
atom 0.5364500086880000 4.6470583147669995 14.5604342741879993 C
atom -0.4217799986730000 4.8927477873890002 13.5351247319529993 C
atom -1.4509096696710000 5.9513277459680003 13.7572944036330007 C
atom -2.3628790236919999 5.8308875899450001 14.8224239859410005 C
atom -2.3652989501130004 4.9172682620380002 15.4140639806670006 H
atom -3.2420489288990000 6.8670770113000001 15.1401138103599990 C
atom -3.9122082068849999 6.7590772773700003 15.9915638367760007 H
atom -3.2520588410309998 8.0379970135630003 14.3783143053989999 C
atom -3.9240083248080002 8.8576466773410001 14.6376840618250004 H
atom -2.4030292702130001 8.1445769656020008 13.2742245956430001 C
atom -2.4250790174489998 9.0311564071629995 12.6384147259039992 H
atom -1.5086296509460000 7.1157769718750004 12.9726450358119987 C
atom -0.8417597371920000 7.2161671405450001 12.1203149880449992 H
atom -1.0875598078070001 4.1735713730700006 31.1802105865140007 C
atom -0.2454201215290000 3.8919915287769999 32.2997400935989987 C
atom 0.4727095806840000 3.0813717413270001 32.2074802003569971 H
atom -0.3502797191410000 4.5838211340899999 33.4775896686769983 C
atom 0.2671396623170000 4.3168211745009994 34.3338292761199995 H
atom -1.2671397269959999 5.6626405253880003 33.5889994191949981 C
atom -1.3264292472529999 6.2098005473789994 34.5283589747360011 H
atom -2.0702393800989998 6.0001607287050005 32.5306099643360014 C
atom -2.7506091282999998 6.8477101914540004 32.6041597463890014 H
atom -2.0609592030499999 5.2454511371900008 31.3135907077180029 C
atom -2.9929288017859998 5.4981405631680005 30.2919811710670004 C
atom -4.0204185532609999 6.5662605247029999 30.4614908519460030 C
atom -3.7208186445869997 7.9040998864300001 30.1594609624880015 C
atom -2.7303887459530003 8.1516996880220010 29.7745413169270030 H
atom -4.6678983633810001 8.9094494014020000 30.3664009201079992 C
atom -1.9352394480980002 -0.8327864828030000 30.1276907629390003 H
atom -5.9265776085009998 8.5917193595310000 30.8851504873230027 C
atom -4.1779582503999997 -1.3955466427540000 31.0775005058760030 H
atom -6.2441372553779999 7.2608900055230006 31.1660603935339999 C
atom 0.3911597007450000 7.0007603509250007 31.5629606063750003 H
atom -5.2997277637260005 6.2563607149010005 30.9482506111570004 C
atom -5.5528077223299999 5.2208507568140003 31.1665006687980011 H
atom -2.9805090175960003 4.7010110849790001 29.1204415025369983 C
atom -3.9292582898250004 4.8830712567670007 28.0920817840740007 C
atom -4.6756481605460003 5.6604910084140005 28.2267716183529984 H
atom -3.9428486135390002 4.1159111887959998 26.9201124238200009 C
atom -4.8614279174670001 4.3475113237930003 25.8347428796160017 C
atom 1.7381294824300000 5.4197710369990002 26.0553827005890000 C
atom -5.5163479562070004 6.7611204297670007 26.2790726977899993 C
atom -4.4824080662790005 7.0727601735449994 26.1217526091060002 H
atom 1.1548097376750002 7.6880596719409997 26.7212323610870008 C
atom -6.1548777957260006 8.7150996229660009 26.9161922806040010 H
atom -0.1673897978170000 7.2945901135910001 26.9407820774399980 C
atom -0.8872499088200000 7.9998200680750005 27.3550821592180036 H
atom -0.5568799451270000 5.9865603506279994 26.6455023697940021 C
atom -1.5923793196739999 5.6811008650329997 26.7869423858849984 H
atom 0.3867595939900000 5.0586511270130003 26.2035723693150011 C
atom 0.0838597375440000 4.0314312558080001 25.9983728748479983 H
atom -4.8521980122330000 3.4988918651500001 24.7204331744590000 C
atom 2.0597791383400001 3.8271017283290001 23.4690438716909995 C
atom 1.6646093342890000 5.1362110123719997 23.1509137720080034 C
atom 1.9112492088030000 5.9537704269999994 23.8193632791069980 H
atom 0.9895493481059999 5.4353209031439995 21.9650143564059981 C
atom 0.6991296020280000 6.4663603739350002 21.7648245805979990 H
atom -2.5856789451790001 3.2112518858530001 42.8144161738809998 C
atom -3.1509786255529999 3.4155814133320002 41.9055160464600007 H
atom -2.1419592680860000 1.8976223718759999 43.0461560116060014 C
atom 1.8531794415310001 2.8166916937059998 22.4859441328609968 C
atom -2.4016190135079998 0.8627527179590000 42.0935162300729999 C
atom -2.9598885774369998 1.1175424474500000 41.1917965053649979 H
atom -1.9859891099290001 -0.4162167608720000 42.3165563979179993 C
atom -2.2057589639139996 -1.2063367605190001 41.6008863104010018 H
atom -1.2498695064240000 -0.7574766580480000 43.4970158739600024 C
atom 2.4192189113509999 -0.8664564277820000 21.9893840156099998 C
atom -3.5939384044740001 7.9112596512400000 43.0256959120779996 H
atom 3.0909286779470002 -1.1798964317139999 23.1600537171519996 C
atom 0.8700998114270000 8.5617594744989987 23.3937536264850010 H
atom 3.4612885475300001 -0.1713967260610000 24.0545935683240018 C
atom -3.6317883185760000 -0.4639368843780000 24.9569631223880002 H
atom 3.1503388505600003 1.1792227893930001 23.8261134609190002 C
atom 2.3520488872100000 1.4882923204820000 22.6872139589260016 C
atom -4.0970581998169999 2.2480222141959998 24.7711330936520007 C
atom -3.0982186202989999 2.0916123099520001 25.7361725506490018 C
atom -2.0684089568560000 1.0112027417690002 25.7181127979930011 C
atom -1.0868697609990001 1.0104825318719999 24.7171729149619992 C
atom -1.1323096608120002 1.7465920810139999 23.9172832495410006 H
atom -0.0435200456570000 0.0887530372630000 24.7439333958520002 C
atom 0.7113498864890000 0.1108329475880000 23.9640736090579978 H
atom 0.0422902383090000 -0.8509864673640000 25.7694625465420017 C
atom -1.6032295648820001 9.2202493412810007 25.7816526679139990 H
atom -0.9301793929450000 -0.8713068641640001 26.7710623132919991 C
atom -3.3535285307809999 9.1741294490230008 27.5792119025060032 H
atom -1.9726591412990002 0.0564430771740000 26.7482124504319998 C
atom -2.7168788571430000 0.0557128129140000 27.5470019568700017 H
atom -2.9798486046999999 3.0437017474050001 26.8041321715530003 C
atom -2.0074292452610001 2.8966916142120001 27.7955018885390004 C
atom -1.2689992549739999 2.1123322353870000 27.6847419673770005 H
atom -1.9631794645210001 3.6814716887520000 28.9587715789130016 C
atom -1.0049494571600002 3.4357917413160002 29.9840811211480016 C
atom 0.0241897390240000 2.3772022575510001 29.7619209746540037 C
atom 0.9361596222220000 2.4976519387599998 28.6967813379830012 C
atom 0.9385795486430001 3.4112717958440002 28.1051418724340003 H
atom 1.8153194730659998 1.4614625174050000 28.3790915135639992 C
atom 2.4854787510519998 1.5694622513350001 27.5276420163250002 H
atom 1.8253394395610001 0.2905430443190000 29.1409016020650000 C
atom 2.4972889233380000 -0.5291066194589999 28.8815212620989996 H
atom 0.9763098687430001 0.1839630922800000 30.2449807282809999 C
atom 0.9983596159790000 -0.7026168784580000 30.8807905980199990 H
atom 0.0819001951130000 1.2127625568300002 30.5465708716520012 C
atom -0.5849697186410001 1.1123623337969999 31.3988903358789990 H
atom -3.6223885475249999 2.9315019356260001 34.0986095704430028 C
atom -4.4645282338029997 3.2130918342819998 32.9790700089950022 C
atom -5.1826579360160006 4.0237116217320006 33.0713299022370038 H
atom -4.3596681070139995 2.5212622289690003 31.8012304882800017 C
atom -4.9770880176489998 2.7882521341950000 30.9449908808370004 H
atom -3.4428086283360000 1.4424322541310000 31.6898202085850009 C
atom -3.3835286332650001 0.8952727613170001 30.7504505986809988 H
atom -2.6397190295960002 1.1049226343540000 32.7482001382579995 C
atom -1.9593492813950000 0.2573631172420000 32.6746598813910012 H
atom -2.6489891522820002 1.8596322258689999 33.9652193948760015 C
atom -1.7170290787319999 1.6069322163510000 34.9868289315270005 C
atom -0.6895298020710000 0.5388127839929999 34.8173293050110004 C
atom -0.9891297107450001 -0.7990165233709999 35.1193491401060029 C
atom -1.9795691345650002 -1.0466263793260000 35.5042788400299969 H
atom -0.0420499919510000 -1.8043760927060002 34.9124192368489972 C
atom -2.7747089072339999 7.9378698458620001 35.1511188104779961 H
atom -4.5425580283380000 -0.1895067505320000 38.3380274959770020 C
atom 1.2166292531690002 -1.4866365256490002 34.3936691404569999 C
atom -0.5319895757549999 8.5006294766360000 34.2013095967180050 H
atom 1.5341894292230001 -0.1558071716410000 34.1127491798830036 C
atom -5.1011080560770008 0.1043230121340000 33.7158494962190005 H
atom 0.5897799375710000 0.8487125937950000 34.3305594914370005 C
atom 0.8428498418120001 1.8842220227050002 34.1123094337959998 H
atom -1.7294393377360002 2.4040722780800001 36.1583686000570026 C
atom -0.7806895363300000 2.2220121062920000 37.1867283185200037 C
atom -0.0343001947860000 1.4445923546449999 37.0520384842409953 H
atom -0.7670997417930000 2.9891615907230000 38.3586976787739999 C
atom 0.1514800913120000 2.7575619849030004 39.4440672229780063 C
atom -6.4480773085849998 1.6853123260600000 39.2234274020050009 C
atom 0.8063996008750001 0.3439528789290000 38.9997374048040015 C
atom -0.2275397598760000 0.0323231895140000 39.1570574934880042 H
atom -5.8647575638299996 -0.5829768380590000 38.5575877958699991 C
atom 1.4449294403940001 -1.6100162599070000 38.3626178219900069 H
atom -3.6230886486960001 6.0946008311869999 40.5616467128180034 C
atom -3.8227085008749997 -0.8947367050160001 37.9237279433760008 H
atom -4.1530684102049999 1.1185124288910000 38.6333077327999987 C
atom -3.1175685064809997 1.4239824980260001 38.4918677167089953 H
atom -5.0967079493220000 2.0464322360459999 39.0752472584649979 C
atom -4.7938080928759996 3.0736515780740001 39.2804372277459990 H
atom 0.1422401317150000 3.6061914979090002 40.5583769281350044 C
atom -6.7697375480349997 3.2779715803670002 41.8097762852659969 C
atom -6.3745672148070005 1.9688622963240001 42.1278963305860046 C
atom -6.6211975641349996 1.1513124068820000 41.4594462943100055 H
atom -5.6995077578009994 1.6697624599150001 43.3137957461879992 C
atom -5.4090779573600001 0.6387129347610000 43.5139855219959983 H
atom -2.1242789353389999 3.8938314772060001 22.4643939287130010 C
atom -1.5589792549649999 3.6895014205500001 23.3732935269570028 H
atom -2.5679890872460001 5.2074609911829999 22.2326540909879995 C
atom -6.5631373220490001 4.2883911401759995 42.7928760240960031 C
atom -2.3083293418239998 6.2423205907370001 23.1852938725210009 C
atom -1.7500592487180000 5.9875308612460003 24.0870135972289994 H
atom -2.7239587162259999 7.5213001239309998 22.9622537046759980 C
atom -2.5041888622410000 8.3114195944010003 23.6779333173790008 H
atom -3.4600883740940001 7.8625499667440000 21.7817942286340021 C
atom -7.1291672666830008 7.9715297364780007 43.2894255578070002 C
atom -1.1160094216810001 -0.8061768173580001 22.2531141905159977 H
atom -7.8008770332789998 8.2849797947730011 42.1187563854419977 C
atom -5.5800476375820001 -1.4566861658030001 41.8850665304720025 H
atom -8.1712369028620007 7.2764800891200005 41.2242265886330017 C
atom -1.0781595075790000 7.5690101930739999 40.3218570345690068 H
atom -7.8602967310779999 5.9258605736659993 41.4526966416750042 C
atom -7.0619972425419997 5.6167905134000007 42.5915961436680064 C
atom -0.6128896263379999 4.8570510945000001 40.5076770089419966 C
atom -1.6117392602189999 5.0134609987439998 39.5426370227679982 C
atom -2.6415388692990001 6.0938705669270004 39.5606973046010069 C
atom -3.5776487488830004 5.3584806985050006 41.3615263238759994 H
atom -4.6664283096750001 7.0163202714330000 40.5348767067419971 C
atom -5.4212977126439998 6.9942403611080008 41.3147465478990057 H
atom -4.7522380644640005 7.9560597760600000 39.5093470268749982 C
atom -3.1067187904500000 -2.1151659782220000 39.4971674890430009 H
atom -3.7797684332100001 7.9763896980459998 38.5077578436649972 C
atom -1.3564192953740000 -2.0690561403270000 37.6995982000880048 H
atom -2.7372886848560003 7.0486302315220000 38.5305976521620011 C
atom -1.9930790233750000 7.0493700209680004 37.7318081457240027 H
atom -1.7300992214549999 4.0613715612910006 38.4746774018639996 C
atom -2.7025191100710000 4.2083811653070002 37.4833082140550005 C
atom -3.4409485711809999 4.9927511276720002 37.5940681352170003 H
atom -2.7467789451739999 3.4236016199440003 36.3200385236809993 C
atom -3.7050084233580001 3.6692916217430001 35.2947289814460063 C
atom -4.7341380943560001 4.7278710511450006 35.5168986531259989 C
atom -5.6461079775540002 4.6074314242990004 36.5820282354340023 C
atom -5.6485279039750003 3.6938115672150000 37.1736682301600041 H
atom -6.5252773535840003 5.6436208456539996 36.8997180598530008 C
atom -7.1954371607469998 5.5356205825469997 37.7511680862690042 H
atom -6.5352872657159997 6.8145403187400007 36.1379185548920034 C
atom -7.2072372786700001 7.6341899825180004 36.3972883113180004 H
atom -5.6862576948979999 6.9211202707790003 35.0338288451360000 C
atom -5.7083079713110001 7.8076997123399998 34.3980195045739947 H
atom -4.7918580756310005 5.8923208062289998 34.7322492853050022 C
atom -4.1249881618769999 5.9927104457220004 33.8799192375379974 H
atom -0.2804929147350000 16.1724767528280005 9.4206063370209989 C
atom 0.5616467715430000 15.8908969085349998 10.5401358441060005 C
atom 1.2797764737560000 15.0802771210850004 10.4478759508640007 H
atom 0.4567866447540000 16.5827265138480016 11.7179854191840001 C
atom 1.0742065553890001 16.3157265542590011 12.5742250266269995 H
atom -0.4600728339240000 17.6615459051459993 11.8293951697019999 C
atom -0.5193628833580001 18.2087059271370002 12.7687547252430011 H
atom -1.2631724870270000 17.9990655792860004 10.7710057148429996 C
atom -1.9435422352280001 18.8466155712119985 10.8445554968960014 H
atom -1.2538923099780002 17.2443559877709980 9.5539859290480003 C
atom -2.1858619087140001 17.4970459429260004 8.5323763923970013 C
atom -3.2133516601890002 18.5651653752839998 8.7018866024530013 C
atom -2.9137517515150000 19.9030052661879999 8.3998567129949997 C
atom -1.9233223820580001 20.1506050677800026 8.0149370674339995 H
atom -3.8608314703090003 20.9083547811599999 8.6067966706150010 C
atom -1.1281725550260000 11.1661183677779992 8.3680865134460003 H
atom -5.1195107154289996 20.5906247392890016 9.1255462378299992 C
atom -3.3708918865050004 10.6033587370039992 9.3178962563829995 H
atom -5.4370708914829997 19.2597953852809987 9.4064561440409999 C
atom 1.1982265938169998 18.9996652015060015 9.8033563568820004 H
atom -4.4926613998310003 18.2552655654820022 9.1886463616640004 C
atom -4.7457413584349997 17.2197561365719984 9.4068964193050011 H
atom -2.1734421245239997 16.6999164647370009 7.3608372530440001 C
atom -3.1221919259299997 16.8819761073479988 6.3324775345810007 C
atom -3.8685812674740001 17.6593958589949978 6.4671673688600002 H
atom -3.1357817204670000 16.1148165685539979 5.1605081743270000 C
atom -4.0543615535719999 16.3464167035510002 4.0751386301229999 C
atom 2.5451958463250000 17.4186758875799974 4.2957784510960000 C
atom -4.7092810631350002 18.7600252803479997 4.5194684482970002 C
atom -3.6753417023840003 19.0716655533029993 4.3621483596130002 H
atom 1.9618761015699999 19.6869650516990014 4.9616281115940000 C
atom -5.3478109026540004 20.7140050027239973 5.1565880311110002 H
atom 0.6396765660780001 19.2934954933490026 5.1811778279469998 C
atom -0.0801830157480000 19.9987249186559986 5.5954779097250000 H
atom 0.2501869479450000 17.9854657303860002 4.8858981203010003 C
atom -0.7853124266020001 17.6800057156139978 5.0273381363920002 H
atom 1.1938264870620001 17.0575559775939993 4.4439681198220002 C
atom 0.8909266306160000 16.0303366355659982 4.2387680961780001 H
atom -4.0451316483379998 15.4977967157310008 2.9608289249660000 C
atom 2.8668460314120003 15.8260065789100004 1.7094390930210002 C
atom 2.4716762273609998 17.1351163921300014 1.3913095225150001 C
atom 2.7183161018750002 17.9526758067580019 2.0597590296140003 H
atom 1.7966162411780000 17.4342262829019994 0.2054101069130000 C
atom 1.5061964951000000 18.4652657536930001 0.0052198019280000 H
atom -1.7786120521070001 15.2101567364339996 21.0548113952110008 C
atom -2.3439122616580002 15.4144867930899991 20.1459117969669990 H
atom -1.3348923750140000 13.8965272224569993 21.2865517621129996 C
atom 2.6602458054259999 14.8155970734639997 0.7263398833680000 C
atom -1.5945521204360000 12.8616580977170010 20.3339119805799982 C
atom -2.1528222135420001 13.1164478272080007 19.4321922558719997 H
atom -1.1789227460339999 11.5826886188859994 20.5569516192480002 C
atom -1.3986926000190001 10.7925686192390007 19.8412820609080001 H
atom -0.4428026133520000 11.2414287217100011 21.7374110952899997 C
atom 3.2262858044230001 11.1324484227989995 0.2297797661170000 C
atom -2.7868720405790000 19.9101650309980016 21.2660916625850014 H
atom 3.8979955710190000 10.8190089480440008 1.4004494676590000 C
atom 1.6771661753220000 20.5606648542570021 1.6341493769920001 H
atom 4.2683554406020008 11.8275081245200013 2.2949893188310004 C
atom -2.8247219546809998 11.5349684953800011 3.1973588728950002 H
atom 3.9574052144550000 13.1781276399739991 2.0665092114260002 C
atom 3.1591157802819998 13.4871977002400012 0.9276097094330000 C
atom -3.2899918359220002 14.2469270647769992 3.0115288441589998 C
atom -2.2911522564040001 14.0905171605330004 3.9765683011560000 C
atom -1.2613425929610000 13.0101075923500016 3.9585085485000002 C
atom -0.2798028679270000 13.0093879116300002 2.9575686654690001 C
atom -0.3252427677400000 13.7454974607720004 2.1576790000479997 H
atom 0.7635468474150000 12.0876584170210002 2.9843286171820003 C
atom 1.5184162503840000 12.1097383273460011 2.2044693595650000 H
atom 0.8493566022040000 11.1479183832170019 4.0098582970490000 C
atom -0.7961626718100000 21.2191547210390006 4.0220484184209999 H
atom -0.1231130290500000 11.1275985155940003 5.0114580637990009 C
atom -2.5464621668860001 21.1730342996040015 5.8196076530130005 H
atom -1.1655927774040000 12.0553484569320002 4.9886082009389998 C
atom -1.9098124932479998 12.0546181926720006 5.7873977073770000 H
atom -2.1727822408050002 15.0426071271630004 5.0445279220600003 C
atom -1.2003623521889999 14.8955969939700008 6.0358976390460004 C
atom -0.4619328910790000 14.1112376151449990 5.9251377178840006 H
atom -1.1561125714490001 15.6803765393330004 7.1991673294199998 C
atom -0.1978830932650000 15.4346965918969996 8.2244768716549999 C
atom 0.8312566320960000 14.3761071081320004 8.0023167251610001 C
atom 1.7432265152940001 14.4965573185180006 6.9371770884900004 C
atom 1.7456464417150002 15.4101766464250005 6.3455376229409994 H
atom 2.6223858369610000 13.4603678971630014 6.6194872640710001 C
atom 3.2925456441240004 13.5683676310930004 5.7680377668320002 H
atom 2.6324058034560003 12.2894478949000003 7.3812968233950000 C
atom 3.3043558164099998 11.4697982311220006 7.1219170126059996 H
atom 1.7833762326380000 12.1828679428610016 8.4853764787879999 C
atom 1.8054265090510000 11.2962885013000012 9.1211863485269991 H
atom 0.8889665590080000 13.2116679365880003 8.7869666221589995 C
atom 0.2220971744310000 13.1112677135549998 9.6392860863859990 H