#=======================================================
# FHI-aims file: geometry.in
# Created using the Atomic Simulation Environment (ASE)
# Tue Jul  9 08:42:30 2019
#=======================================================
lattice_vector 1.9575872700000001 3.0653484108000000 -38.2750197093999986 
lattice_vector 2.8989440136000000 -10.6259243003999995 0.0000000000000000 
lattice_vector -6.3356800000000000 0.0000000000000000 0.0000000000000000 
atom 0.8678362706000000 2.0210263500000001 33.2149090037000008 H
atom 2.6717405300000001 0.1301985941000000 23.7439850268000008 H
atom 0.8878844506000000 -1.9830892794999999 27.9114839978000013 H
atom 1.2875083725000001 1.1944699942999999 36.1672526489999981 H
atom 2.0070248299000002 2.6585745326999999 27.7031147904999990 H
atom -1.7853780199000000 -0.7009688099000000 33.8191950148999965 H
atom -1.2744073155000000 -2.0521096657000002 28.9447181548000003 H
atom -3.3103804850000000 7.1158595842999999 22.8290589556000008 H
atom 1.7039697143000001 4.8722247128999996 18.3836833414999994 H
atom 3.5500287300000002 0.7685353395000000 27.2876394514999987 H
atom 3.2558891167000001 2.2399438365000002 7.2931136304999997 H
atom -1.6858225462000000 7.2936211518000000 24.7038076959999984 H
atom 1.5672563654000000 4.3346138889999999 25.2736079143999994 H
atom -2.5352559278000002 6.3000393758000000 27.6100682175999985 H
atom 2.1198827116999999 -1.0665502536000000 31.9274138906999987 H
atom -0.7468645839000000 0.0247063248000000 37.3992872584000011 H
atom -0.3320789051000000 1.1163412195000000 29.1852383786999994 H
atom 0.5529718168000000 3.3570512430999999 36.4571093732999998 H
atom 0.3385813560000000 -1.3293792808000000 30.2258978895999988 H
atom 3.0426167750999999 2.0865523664999999 32.1539254573999997 H
atom 1.3906140922000001 4.3644978663999998 33.4940869974999984 H
atom -0.4543605929000000 5.7046951556999996 27.8388762854000014 H
atom 1.5933083416000000 8.3498527567000007 7.4699442215999996 H
atom 1.6105401338000001 9.2841521983999993 5.2881149981000002 H
atom 2.0529841751000002 -2.5950045344000001 34.2737108740000025 H
atom -0.3009796342000000 2.6295639127000001 26.7816819660000007 H
atom 4.2110758365000001 6.6625782821000001 0.0187547597000000 H
atom -1.0638217735000000 5.1388193564000000 36.9741283394999982 H
atom -0.6932530925000000 4.9330984112999996 33.2787900116000017 H
atom -1.4638455511999999 -2.5190673076999999 36.2343870336000009 H
atom 1.0620123035000000 6.1430106428000002 31.7964750482999996 H
atom 1.4361227615000001 1.3596462564000000 30.9040546887999987 H
atom -0.7773257148000000 3.1195323417999998 24.2522007385000009 H
atom -1.0190508171999999 6.6694898809999996 31.5239951830000003 H
atom -2.7337853010000002 6.3243959625999997 35.7578630382000000 H
atom -0.0038075967000000 0.5341274820000000 0.9077303674000000 H
atom 2.1779558899000002 3.3992103074000002 30.3265994664000011 H
atom -1.0308493790000000 0.7021322508000000 25.3650086614999992 H
atom -1.8319593275999999 -1.4286284304000001 31.2703849024000000 H
atom -3.3056694116999998 7.2564700073999999 30.7808091252999994 H
atom 3.6117815391999999 1.4767861434000000 29.8263066837999986 H
atom -0.1152277795000000 3.9789051152999999 29.5880064111000003 H
atom 2.2484083914999999 7.6073651366000004 13.8730488187999992 H
atom -2.5283307335999998 8.7577976501000006 6.3872204640000003 H
atom -2.1959087900999998 4.5343126331999999 29.3116224938000016 H
atom 2.8092763452999998 -0.6857220715000000 35.7162580918000003 H
atom -0.3839372589000000 7.5309144283000000 36.8268843386999976 H
atom 1.9491339641000001 6.9268498410000001 16.6514707745000017 H
atom 1.2071657055000000 9.9441224581000007 0.8427776590000000 H
atom -0.0700280305000000 5.5174785068999999 24.1732010977999998 H
atom 0.5146637157000000 -1.1713502299000000 24.9297451374000012 H
atom 3.1934510224000001 2.5493988459999999 24.7659280529999997 H
atom 3.3902446305999998 2.3128444202999998 9.4030240920000008 H
atom -0.2641022699000000 -2.6001488411999998 33.3793384884000019 H
atom -0.1551623458000000 3.8913947999000000 22.2266484204000001 H
atom -0.2267046000000000 4.6696411986999999 20.0675162835999998 H
atom 2.2147297318999999 4.5059028133999997 21.7911935212000003 H
atom 0.4429980680000000 0.0073465657000000 4.9304349389000004 H
atom -2.9812633339999999 8.5796536524999993 18.1602337765000001 H
atom 3.0785138312000000 4.1577768807000002 10.9812945296999995 H
atom 1.1365486881000000 9.0348218124000006 3.1386281662000002 H
atom -0.0167476143000000 7.7889132583000000 14.4630199725999997 H
atom 1.2596274032000001 -0.9965770351000000 14.7246297323000004 H
atom 3.1030651838000001 3.4045840463000001 1.6934399720000000 H
atom 2.5307429276000000 1.1497494344000001 18.9652339910000016 H
atom -1.0275684384999999 8.7203167355000009 21.2461189654999991 H
atom 3.4838219011999998 3.2065897563000001 17.8714104776999996 H
atom 3.3198383747000002 3.4533498641999998 15.1924270232000005 H
atom 5.0097774509999997 0.5897647212000000 6.7753291639000004 H
atom 0.4999768971000000 6.6114630538999997 3.2353491409999999 H
atom 1.3330593400999999 2.0226695624000000 3.8805511482999999 H
atom 2.6858500524000002 4.2517344980000003 8.1403311917999996 H
atom -1.0879280416999999 2.5668551801000001 16.0663222732000008 H
atom 2.1698507165000001 4.8835146140000001 2.7666332496999999 H
atom -0.8263167773000000 1.4857383790000001 22.2448290548000003 H
atom 2.1431140169999998 6.2767968949000004 19.6780296829999983 H
atom 0.2174448647000000 3.3823694812000000 13.9233421947000000 H
atom 0.6899573872000000 -0.2102932989000000 7.7193442499999998 H
atom 2.1021735911000001 6.7883119625999999 11.5833605897999998 H
atom -1.2050929484999999 6.2657398192000002 8.9935962061999994 H
atom -0.6909293887000000 8.9998341307000000 4.3665290734999997 H
atom 3.7481398365000000 -0.0898255769000000 8.9536370856000005 H
atom -0.8780808679000000 6.9317141403999996 6.2173559265999998 H
atom 3.4940019022000000 9.6616268985999998 2.6994223150000001 H
atom -0.3316522562000000 5.6087714289999999 13.1213657067000007 H
atom 3.6035758598999998 5.1057040574999997 16.4503355460000016 H
atom -0.5852382031000000 4.5543139979999996 17.5089843161000012 H
atom 0.6803820599000000 0.9280765703000000 15.5677901414999997 H
atom -1.0635093962000000 7.0979211495000003 11.2765863068000005 H
atom 1.0644830215000001 6.0854717035999997 8.3616373557999992 H
atom -1.9780989911000000 8.8945659590999995 9.5972315419999994 H
atom 1.3942316692000001 8.2890371560999991 9.7474227193999994 H
atom 3.0700925148999998 4.9946919929000000 13.3227305854000004 H
atom 3.8796003229000000 2.7490725571999999 21.2658306006999993 H
atom -0.5435275635000000 5.5195836823000004 15.3347718215000004 H
atom -1.1493973235999999 7.9171455114000002 2.2373280020999999 H
atom 0.5428352294000000 6.8557987405000000 21.0116461948000008 H
atom -2.5969827005999999 4.3881515931999999 19.4262566033999988 H
atom 0.5763381050000000 0.9781880709000000 13.4911023971000006 H
atom 0.8339263705000000 -0.2574684400000000 21.7676161089999987 H
atom -1.2066288796000000 9.4235767582999994 0.5478686321000000 H
atom 0.8910213616000000 -0.8680780863999999 11.9436816253000000 H
atom 4.0642304123999997 5.3252118281999996 4.7405142911000002 H
atom 4.7900673892999999 1.6694844876999999 1.3729249569999999 H
atom 3.9352902722000001 -0.7630333727000000 22.2524840586999986 C
atom 0.5369552373000001 8.2782979847000000 26.8544810534999989 C
atom -2.5721021559000001 3.4881205557000001 34.5302300560000006 C
atom 2.4728606325000002 1.1210057153999999 21.4665065290000001 C
atom -0.9956134716000000 5.0525548143999996 0.8913103840000000 C
atom 1.4293412472000000 7.1688563643999998 26.5689494064999998 C
atom -2.8104479590999998 2.7053393234000001 36.8246643875000004 C
atom 3.7977456834000001 6.2717407415000004 2.4590551913000001 C
atom 0.4202224985000000 3.1660906225000001 1.6645806072000000 C
atom 2.0326663078000000 7.0438501762000003 25.3283029175999985 C
atom 2.1386950067999999 -0.3367818570000000 26.0940329619000018 C
atom 3.6726942843999999 -1.5815647281000000 24.5508224422000012 C
atom -1.6650862781000000 2.3915728640000000 34.2484876360000001 C
atom 1.6499283178999999 6.1348150378000001 27.6104892427999999 C
atom -3.7423920340999999 8.6957479941999996 20.7121058904999984 C
atom -1.5300938152000001 5.2155533386000004 2.1852357002999998 C
atom 0.4565801793000000 1.5852163153000001 8.9100801131999994 C
atom -1.2734665598999999 1.5295120739000001 35.2564602799999989 C
atom 0.0775602637000000 1.9172226982000000 32.4717612211000031 C
atom 3.3836285345000001 -0.6676247082000000 23.5442659739000000 C
atom -3.3469891180000002 5.9449309677000004 25.0233658355999999 C
atom -1.2580542289000001 2.1189990837999999 32.8467033140999973 C
atom 3.0223059431000001 -2.0774705548000001 28.2580643012000010 C
atom 3.0766012252000001 -1.4649955958000000 25.8509100367000002 C
atom 0.6856962921000000 2.2436044911000002 6.4968401204999999 C
atom 1.6882595598000001 -1.8783513133000000 28.6437616748999986 C
atom 0.9441587914000000 0.3688071057000000 35.5437525780000030 C
atom -0.0296803753000000 4.0020732902000002 0.6257200222000000 C
atom 1.6696193188999999 1.8115611451000000 27.1132201867000013 C
atom -1.8271272488999999 1.6761565912000000 36.5710923820000033 C
atom 2.0160352016999998 8.8228000906999995 21.9947400759999994 C
atom 1.7300902900999999 7.9923333830000001 24.2903226580999991 C
atom 2.1994815616999999 4.7081816203000004 36.0692685985999972 C
atom 3.7703493354000002 0.2222915711000000 17.4734650977999983 C
atom -0.7733276632000000 -0.6961988536000000 34.2281253255000024 C
atom 4.0196945907000003 -1.9202048671000000 29.2326994030999998 C
atom 2.3174674134000002 7.9160036184999996 23.0311127846999995 C
atom 1.4764169734000001 4.0007507363999997 17.7756081033999997 C
atom 2.5417108160000002 0.7551602626000000 26.8703269115999994 C
atom -3.1704779507000000 3.6158569897000001 35.7716803202999998 C
atom 3.0184723401000002 1.3811196811999999 6.6706469850000003 C
atom -2.0116308028000001 6.2535918023999999 24.7141036762999988 C
atom -0.5166514577000000 3.7303757241000000 8.0622884266000003 C
atom 1.4195255094999999 2.0951274745999999 1.3883115149000000 C
atom 3.4812911170000000 0.0623522387000000 21.2017199426000005 C
atom 2.5963100499000000 4.5988206446000000 25.0332790657000004 C
atom -3.3952284017999999 5.7810304963999997 28.0304810340999992 C
atom 3.9378201772999999 -0.1819490275000000 19.8890015917000014 C
atom 2.3767502868000001 -1.3613460572000000 30.9096428416999984 C
atom -1.4740119941000001 0.8093001550000000 37.5972839354000001 C
atom -0.3517346898000000 0.3901832534000000 35.0039216999999994 C
atom -2.7311571925000000 7.6294228633000003 20.4786282702999998 C
atom -2.7970257889000001 4.5172249115999996 33.4893026199999966 C
atom -0.5975259850000000 1.4061892301000001 30.2018994521999993 C
atom 0.8728961136000000 4.3977393607000002 36.4112558997000022 C
atom 1.3751311037000000 -1.5167130493000001 29.9512363481000001 C
atom -2.2504077909000002 1.9591036994000000 31.8688148355999985 C
atom -0.8813082691000000 3.9641125358000000 5.6470198579000002 C
atom 2.2511761854999999 4.8799677054000004 33.0724876554000033 C
atom 0.5536046413000000 5.4657917490000001 28.1761557590999985 C
atom 2.3211466082999999 7.5440974736999999 7.3875763792000004 C
atom 0.8285023043999999 9.9963491043000001 5.5408066782000001 C
atom 1.3837616628000000 -1.7600673919000001 34.4865965336000002 C
atom -1.0559056840000001 4.4004803877000001 3.2367270417000000 C
atom 0.3772806637000000 1.7969421104000001 26.5880486412999986 C
atom -3.3421905190999999 2.8235357537999999 38.1029734958000006 C
atom -0.0469641563000000 5.4055027819000001 36.6872187917999995 C
atom -1.6952485998000000 5.1819988123999998 32.9322479831999999 C
atom 1.6513294456000001 7.0664564195999997 36.2734658286999974 C
atom 2.0662340332000002 5.8780866459999999 32.1228461413999966 C
atom 0.3983918035000000 1.5535111362000000 31.1678843995999983 C
atom -1.4952774711000001 3.9098502186999999 24.4624454217000000 C
atom -1.8771613491000001 6.1605919011000001 31.9607897078999983 C
atom -3.7586362532000002 6.0575686138000000 36.0147266955000021 C
atom 0.5131640036000000 1.1679568666000000 11.3362570624999996 C
atom 1.0454929876000001 0.7893956938000000 1.0401236605999999 C
atom 2.0322809057000000 4.1464356511000000 29.5514920423000014 C
atom -0.0309052105000000 0.7206156691000000 25.7977460343000011 C
atom 3.7048083945000001 -1.5720255744000000 30.5427767776999985 C
atom -3.1644196632999999 6.5077956596000002 31.5550362239999984 C
atom -1.9286547340000000 1.6150223314000001 30.5595795113999991 C
atom 0.7424538803000000 4.4892239130000000 29.1492598602000008 C
atom 5.1196688876999996 -1.1250449294000000 15.8805353275000005 C
atom 1.9231284550000001 8.3012053977000004 13.1044481479999995 C
atom 4.1888937315000003 5.4595874637000001 7.1596486368000001 C
atom 3.5555305141000000 7.7744204760000004 6.7802283664000003 C
atom -3.2034075153999999 4.7866978428999998 28.9835290247999993 C
atom 1.8072685187999999 -0.6954327752000000 35.2851665447999991 C
atom 0.3373615540000000 6.7449863193999997 36.6090612014999977 C
atom 2.9198178040000000 7.1196561038999997 16.1920174378999988 C
atom 3.3584092270000001 0.0961958187000000 0.9801084297000000 C
atom -1.0943988794999999 5.2469733638999996 24.4296820048999983 C
atom 0.8451560323000000 -0.3361762982000000 25.5481929058000006 C
atom 3.6650183325999999 1.2095686545000000 12.6430045104000008 C
atom -3.1274923992999999 8.4069616894999992 15.7104411400000004 C
atom 3.7191479190000001 0.7238400022000000 15.0774871390000005 C
atom 3.5171476615000001 3.5899161562000002 24.7586940742999992 C
atom 3.5312839056000001 1.6081693636000001 10.2222626138999999 C
atom 2.2056479491999998 1.9718977066000001 16.6635274056999982 C
atom -0.0162358465000000 3.9077896775999998 11.8321864929000000 C
atom 0.0865302481000000 -1.7596559019000000 33.9721037186000032 C
atom 0.5795959222000000 3.1166439019999999 22.0164037372000010 C
atom -0.9179459331000001 5.5017978864000003 20.1788583159000012 C
atom 1.9022758085000000 3.4633909205000002 21.7488996243999999 C
atom 4.9950248932000001 -1.1480606274000000 19.6490172180999991 C
atom -0.0249216297000000 3.4103211616000002 2.9824278108000000 C
atom 1.4478549414999999 0.1342623535000000 5.3363032479000001 C
atom -0.8986257002000000 -1.3471632494000001 18.3257349617000003 C
atom 4.4750692151999996 -1.0022518155000000 13.4335367674999997 C
atom 3.2209298715000001 3.4686431876000001 11.8161109845999999 C
atom 1.7169223624000001 1.2242197647999999 6.1807650076999998 C
atom 1.8787551227999999 8.2581249611000000 2.9678067532000001 C
atom -0.9679203452000000 7.6010084544999996 14.9562701516000001 C
atom -0.0311127583000000 3.4234787420999999 10.4922928779000006 C
atom -1.1658572278999999 4.3570739800000000 6.9987021789000003 C
atom 0.2533776205000000 2.5158219662999999 7.7952053390999998 C
atom -1.8864671414000000 8.6373088126000006 15.1013324762999996 C
atom 2.7849083754000001 2.3888153537000001 1.4760378600999999 C
atom 3.2508972237000000 0.9662062369000000 16.3659391274999990 C
atom 3.3507418666000000 0.4579954643000000 18.7815521714000013 C
atom -1.3867183876000000 7.7771903761000001 20.8441164335000018 C
atom 2.4724999979000000 3.0764783419000001 17.4836845280999995 C
atom 3.3495503193000000 3.0463076659000001 14.1867891553999996 C
atom 4.0111094773999998 0.4551854083000000 6.3664371283000003 C
atom 4.8195047945000002 -0.7413695244000000 17.2328683239000000 C
atom 1.5195763250000001 6.9131666033999997 3.0056607476999999 C
atom 0.5440850455000000 2.7422190353999998 4.0805764013000001 C
atom -0.4989484107000000 4.2595646778000003 9.4375481598000004 C
atom 2.9407855881999998 5.2381028373999996 7.7542893429999999 C
atom -0.0925551691000000 2.7217181675000002 16.4728412575000007 C
atom 2.4702842075000002 5.9290535466999996 2.7473809146999999 C
atom 0.1987807663000000 1.7752280315000000 22.0173223375999996 C
atom -3.1452040351999999 6.3999645943000001 19.9515812488999984 C
atom 0.2404533422000000 3.0001174234999999 12.9040401447999997 C
atom 4.0175200439000003 -0.1541083341000000 12.3825430013000002 C
atom 0.6498451969000000 0.2084139398000000 8.7199680903000001 C
atom 1.8403747268999999 7.8246898640999998 11.7955190240000007 C
atom -0.8635614327000000 5.5797339296999997 9.7621586018999995 C
atom -0.4555982064000000 9.8407973983999995 5.0189650595000002 C
atom 3.7392321697000002 0.2877398222000000 9.9757332118999997 C
atom -1.8526544765999999 6.7443402011000000 6.6716038605000003 C
atom 3.2018686097000000 8.6122923049000004 2.7096800203000000 C
atom -0.3557466259000000 5.2445309575000003 12.0952889783999993 C
atom 3.5333489993999998 1.6716307733000000 13.9765061971000009 C
atom -2.4896441608000002 6.0921964500000003 16.0608872204000015 C
atom 0.1882222749000000 3.8269391141000000 17.2716026438999997 C
atom 4.4865591170999997 -0.4889576277000000 14.8126240025999998 C
atom 0.9067920034000000 1.7979633871000000 16.1789656561999990 C
atom -0.7827039506000000 6.0656996013000004 11.0682553744999996 C
atom 2.0185783839000000 6.2748457168999998 7.8745877300000000 C
atom 0.7886824429000000 -0.6675975736999999 9.7957257941999991 C
atom 0.1490582685000000 2.9838143637000001 5.3944430028000001 C
atom 1.4254317131000001 8.6563270714999998 10.7717770718000008 C
atom 3.2011936987000000 3.9313350289000000 13.1202557312000003 C
atom 2.8426127770999998 2.4743491906999999 21.4645927780000001 C
atom 3.9970062710000001 -0.6298449525000001 11.0397404847999994 C
atom 3.4680190667000002 2.1107373001999998 11.5560322256999992 C
atom 0.3243776519000000 2.0593535866999999 10.2402135981000004 C
atom -1.2666085684999999 6.3274213575999996 15.4353202983000006 C
atom -2.1799575351999998 7.6292749241999998 2.4557635395999999 C
atom -0.4905301609000000 6.7201804934000000 20.7005085595000011 C
atom -2.2494517401000000 5.3461087885999996 19.8044137981000006 C
atom 0.4433480051000000 1.6774492423000000 12.6668881226999996 C
atom 1.1399682173000001 0.7865597704000000 21.7487847993999992 C
atom -0.8915526984000000 10.4262251850999998 0.8329027039000000 C
atom 0.7555309748000000 -0.1937480822000000 11.0953540885000006 C
atom -1.4871335495000000 4.5941390506999999 4.5625737245000000 C
atom 3.7424372159999999 1.4001434701000000 1.2834379609000000 C
