&control
prefix = 'KECLAH'
calculation = 'scf'
restart_mode = 'from_scratch'
wf_collect = .false.
tstress = .true.
tprnfor = .true.
outdir = './'
wfcdir = './'
pseudo_dir = './'
/
&system
ibrav = 0
nat = 272
ntyp = 2
ecutwfc = 50.0
/
&electrons
electron_maxstep = 100
conv_thr = 1.0d-10
mixing_mode = 'plain'
mixing_beta = 0.7
mixing_ndim = 8
diagonalization = 'david'
diago_david_ndim = 4
diago_full_acc = .true.
/
CELL_PARAMETERS angstrom
8.205300   0.000000   0.000000
0.000000   21.250400   0.000000
-3.581438   0.000000   15.738960
ATOMIC_SPECIES
   H  1.0079 H.UPF
   C 12.0107 C.UPF
ATOMIC_POSITIONS angstrom
C	-1.267070	2.851800	6.870690
H	5.934890	2.958910	6.471860
C	-1.003390	3.351400	8.151680
H	-1.796550	3.848660	8.710410
C	0.259940	3.224750	8.704270
H	0.476150	3.633820	9.691580
C	1.264410	2.523700	8.009870
C	2.549880	2.319480	8.601500
H	2.720550	2.718780	9.599980
C	3.516910	1.607590	7.959510
H	4.491020	1.441630	8.423330
C	3.266430	1.013640	6.681820
C	4.256440	0.245440	6.039040
H	5.222840	0.104760	6.525220
C	3.999600	20.943970	4.795820
H	4.775220	20.389330	4.268720
C	2.744330	21.094420	4.196950
H	2.603170	20.668560	3.209800
C	1.692240	0.524880	4.833430
C	1.985340	1.181520	6.065170
C	0.987270	1.976500	6.719910
C	-0.279020	2.210250	6.105300
C	-0.544200	1.687490	4.752690
C	0.336810	0.628370	4.253610
C	-0.125190	21.038110	3.236560
C	0.542490	19.766480	2.835530
C	0.618110	18.707360	3.752640
H	0.223340	18.852720	4.758360
C	1.165780	17.479520	3.382460
H	1.205690	16.673910	4.116840
C	1.613000	17.273180	2.074080
H	2.009400	16.303520	1.769370
C	1.539310	18.318270	1.150680
H	1.876880	18.168880	0.126230
C	1.016740	19.555470	1.528100
H	0.965580	20.362770	0.797340
C	6.856270	0.099880	2.546090
C	6.185210	1.354290	2.818850
C	6.588170	2.123550	3.965900
C	5.846620	3.395600	4.204030
C	6.528060	4.620900	4.136670
H	-0.599350	4.615800	3.984320
C	5.845670	5.830900	4.266990
H	6.397980	6.770590	4.226540
C	4.465340	5.838330	4.471600
H	3.933500	6.779940	4.596250
C	3.775610	4.625790	4.547300
H	2.702090	4.613250	4.728770
C	4.455210	3.418340	4.406120
H	3.904930	2.482050	4.460740
C	5.108720	1.725110	2.009870
H	4.622350	2.683290	2.169770
C	4.584470	0.887420	1.003520
C	5.206300	20.842600	0.787730
C	6.321110	20.497920	1.580510
H	6.791230	19.536340	1.400770
C	3.476480	1.275870	0.221130
C	2.717990	2.528800	0.504910
C	-0.597220	3.740920	15.591330
H	0.238910	3.805950	14.896450
C	2.150900	4.846370	0.049580
H	-1.245530	5.769480	15.241610
C	1.049120	4.755410	0.900430
H	0.378190	5.605010	1.015010
C	0.792540	3.559440	1.572950
H	-0.075920	3.467000	2.220610
C	1.623090	2.457610	1.381410
H	1.405160	1.519620	1.888050
C	3.579000	13.477000	0.998790
C	5.890930	18.398600	8.868270
C	1.044870	7.773400	14.740170
H	4.582340	13.584110	1.397620
H	-1.311030	18.291490	9.267100
H	0.041520	7.666290	14.341340
C	-0.266120	13.976600	15.456760
C	5.627250	17.899000	7.587280
C	4.889980	7.273800	0.282200
H	0.527050	14.473860	14.898030
H	6.420420	17.401740	7.028550
H	4.096820	6.776540	0.840930
C	-1.529450	13.849950	14.904170
C	4.363920	18.025650	7.034690
C	6.153310	7.400450	0.834790
H	-1.745660	14.259020	13.916860
H	4.147710	17.616580	6.047380
H	6.369520	6.991380	1.822100
C	-2.533920	13.148900	15.598570
C	3.359450	18.726700	7.729090
C	7.157780	8.101500	0.140390
C	4.385910	12.944680	15.006940
C	2.073980	18.930920	7.137460
C	0.237950	8.305720	0.732020
H	4.215250	13.343980	14.008460
H	1.903310	18.531620	6.138980
H	0.408620	7.906420	1.730500
C	3.418890	12.232790	15.648930
C	1.106960	19.642810	7.779450
C	1.204980	9.017610	0.090030
H	2.444780	12.066830	15.185110
H	0.132850	19.808770	7.315630
H	2.179080	9.183570	0.553850
C	7.250800	11.638840	1.187660
C	1.357440	20.236760	9.057140
C	-2.626940	9.611560	14.551300
C	6.260790	10.870640	1.830440
C	0.367420	21.004960	9.699920
C	-1.636930	10.379760	13.908520
H	5.294390	10.729960	1.344260
H	-0.598980	21.145640	9.213740
H	-0.670530	10.520440	14.394700
C	6.517630	10.318770	3.073660
C	0.624270	0.306430	10.943140
C	-1.893770	10.931630	12.665300
H	5.742010	9.764130	3.600760
H	-0.151360	0.861070	11.470240
H	-1.118140	11.486270	12.138200
C	0.772620	7.693070	6.718800
C	3.084560	2.932130	14.588280
C	3.851240	13.557330	9.020160
C	-0.432400	10.469220	3.672530
C	1.879530	0.155980	11.542010
C	5.056260	10.781180	12.066430
H	-0.291240	10.043360	4.659680
H	2.020690	0.581840	12.529160
H	4.915100	11.207040	11.079280
C	0.619690	11.150080	3.036050
C	2.931620	20.725520	10.905530
C	4.004170	10.100320	12.702910
C	0.326590	11.806720	1.804310
C	2.638520	20.068880	9.673790
C	4.297270	9.443680	13.934650
C	1.324660	12.601700	1.149570
C	3.636590	19.273900	9.019050
C	3.299200	8.648700	14.589390
C	2.590950	12.835450	1.764180
C	4.902880	19.040150	9.633660
C	2.032910	8.414950	13.974780
C	2.856130	12.312690	3.116790
C	5.168070	19.562910	10.986270
C	1.767730	8.937710	12.622170
C	1.975130	11.253570	3.615870
C	4.287060	20.622030	11.485350
C	2.648740	9.996830	12.123090
C	2.437120	10.412910	4.632920
C	4.749050	0.212290	12.502400
C	2.186740	10.837490	11.106040
C	1.769450	9.141280	5.033950
C	4.081380	1.483920	12.903430
C	2.854420	12.109120	10.705010
C	1.693820	8.082160	4.116840
C	4.005750	2.543040	11.986320
C	2.930040	13.168240	11.622120
H	2.088590	8.227520	3.111120
H	4.400520	2.397680	10.980600
H	2.535270	13.022880	12.627840
C	1.146150	6.854320	4.487020
C	3.458080	3.770880	12.356500
C	3.477710	14.396080	11.251940
H	1.106240	6.048710	3.752640
H	3.418170	4.576490	11.622120
H	3.517620	15.201690	11.986320
C	0.698930	6.647980	5.795400
C	3.010860	3.977220	13.664880
C	3.924940	14.602420	9.943560
H	0.302530	5.678320	6.100110
H	2.614460	4.946880	13.969590
H	4.321340	15.572080	9.638850
C	1.519390	14.184640	6.296530
C	3.831330	17.690960	14.166010
C	3.104470	7.065760	9.442430
H	0.435060	7.543680	7.743250
H	2.746990	3.081520	15.612730
H	4.188810	13.706720	7.995710
C	1.295190	8.930270	6.341380
C	3.607120	1.694930	14.210860
C	3.328670	12.320130	9.397580
H	1.346350	9.737570	7.072140
H	3.658280	0.887630	14.941620
H	3.277510	11.512830	8.666820
C	3.660960	10.725080	5.323390
C	-2.232410	21.150520	13.192870
C	0.962900	10.525320	10.415570
C	4.332020	11.979490	5.050630
C	-1.561350	19.896110	12.920110
C	0.291840	9.270910	10.688330
C	3.929060	12.748750	3.903580
C	-1.964310	19.126850	11.773060
C	0.694800	8.501650	11.835380
C	4.670610	14.020800	3.665450
C	-1.222760	17.854800	11.534930
C	-0.046750	7.229600	12.073510
C	3.989170	15.246100	3.732810
C	-1.904190	16.629500	11.602290
C	0.634690	6.004300	12.006150
H	2.911280	15.241000	3.885160
H	5.223210	16.634600	11.754640
H	1.712580	6.009400	11.853800
C	4.671560	16.456100	3.602490
C	-1.221810	15.419500	11.471970
C	-0.047700	4.794300	12.136470
H	4.119250	17.395790	3.642940
H	-1.774120	14.479810	11.512420
H	0.504620	3.854610	12.096020
C	6.051890	16.463530	3.397880
C	0.158520	15.412070	11.267360
C	-1.428030	4.786870	12.341080
H	6.583730	17.405140	3.273230
H	0.690360	14.470460	11.142710
H	-1.959870	3.845260	12.465730
C	6.741620	15.250990	3.322180
C	0.848250	16.624610	11.191660
C	-2.117760	5.999410	12.416780
H	-0.390160	15.238450	3.140710
H	1.921770	16.637150	11.010190
H	5.014020	6.011950	12.598250
C	6.062020	14.043540	3.463360
C	0.168650	17.832060	11.332840
C	-1.438150	7.206860	12.275600
H	6.612300	13.107250	3.408740
H	0.718930	18.768350	11.278220
H	-1.988440	8.143150	12.330220
C	5.408520	12.350310	5.859610
C	-0.484850	19.525290	13.729100
C	-0.784650	8.900090	9.879350
H	5.894880	13.308490	5.699710
H	0.001510	18.567110	13.569190
H	-1.271020	7.941910	10.039250
C	5.932760	11.512620	6.865960
C	0.039400	20.362980	14.735440
C	-1.308900	9.737780	8.873000
C	5.310930	10.217400	7.081750
C	-0.582440	0.407800	14.951230
C	-0.687070	11.033000	8.657220
C	4.196120	9.872720	6.288970
C	-1.697240	0.752480	14.158450
C	0.427740	11.377680	9.449990
H	3.726000	8.911140	6.468710
H	-2.167360	1.714060	14.338190
H	0.897860	12.339260	9.270250
C	-1.164550	11.901070	7.648350
C	1.147380	19.974530	15.517830
C	5.788410	9.349330	8.090610
C	-0.406060	13.154000	7.364570
C	1.905880	18.721600	15.234050
C	5.029920	8.096400	8.374390
C	-0.672290	14.366120	8.017110
C	5.221080	17.509480	0.147630
C	5.296150	6.884280	7.721850
H	-1.508410	14.431150	8.711990
H	4.384960	17.444450	0.842510
H	6.132280	6.819250	7.026970
C	0.161030	15.471570	7.819900
C	2.472970	16.404030	15.689380
C	4.462830	5.778830	7.919060
H	-0.023980	16.394680	8.366830
H	5.869390	15.480920	0.497350
H	4.647840	4.855720	7.372130
C	1.262810	15.380610	6.969050
C	3.574740	16.494990	14.838530
C	3.361050	5.869790	8.769910
H	1.933740	16.230210	6.854470
H	4.245670	15.645390	14.723950
H	2.690130	5.020190	8.884490
H	2.387850	14.092200	5.648870
H	4.699780	17.783400	13.518350
H	2.236010	7.158200	10.090090
C	0.688840	13.082810	6.488070
C	3.000770	18.792790	14.357550
C	3.935020	8.167590	9.250890
H	0.906770	12.144820	5.981430
H	3.218700	19.730780	13.850910
H	3.717090	9.105580	9.757530
K_POINTS automatic
   4 1 2 1 1 1
