&control
   prefix = 'TAYSUJ'
   calculation = 'scf'
   restart_mode = 'from_scratch'
   wf_collect = .false.
   tstress = .true.
   tprnfor = .true.
   outdir = './'
   wfcdir = './'
   pseudo_dir = './'
/
&system
   ibrav = 0
   nat = 272
   ntyp = 2
   ecutwfc = 50.0
/
&electrons
   electron_maxstep = 100
   conv_thr = 1.0d-10
   mixing_mode = 'plain'
   mixing_beta = 0.7
   mixing_ndim = 8
   diagonalization = 'david'
   diago_david_ndim = 4
   diago_full_acc = .true.
/
CELL_PARAMETERS angstrom
1.9575872700    3.0653484108    -38.2750197094
2.8989440136    -10.6259243004    0.0000000000
-6.3356800000    0.0000000000    0.0000000000

ATOMIC_SPECIES
   H  1.0079 H.UPF
   C 12.0107 C.UPF
ATOMIC_POSITIONS angstrom
H    0.8678362706    2.0210263500    33.2149090037
H    2.6717405300    0.1301985941    23.7439850268
H    0.8878844506    -1.9830892795    27.9114839978
H    1.2875083725    1.1944699943    36.1672526490
H    2.0070248299    2.6585745327    27.7031147905
H    -1.7853780199    -0.7009688099    33.8191950149
H    -1.2744073155    -2.0521096657    28.9447181548
H    -3.3103804850    7.1158595843    22.8290589556
H    1.7039697143    4.8722247129    18.3836833415
H    3.5500287300    0.7685353395    27.2876394515
H    3.2558891167    2.2399438365    7.2931136305
H    -1.6858225462    7.2936211518    24.7038076960
H    1.5672563654    4.3346138890    25.2736079144
H    -2.5352559278    6.3000393758    27.6100682176
H    2.1198827117    -1.0665502536    31.9274138907
H    -0.7468645839    0.0247063248    37.3992872584
H    -0.3320789051    1.1163412195    29.1852383787
H    0.5529718168    3.3570512431    36.4571093733
H    0.3385813560    -1.3293792808    30.2258978896
H    3.0426167751    2.0865523665    32.1539254574
H    1.3906140922    4.3644978664    33.4940869975
H    -0.4543605929    5.7046951557    27.8388762854
H    1.5933083416    8.3498527567    7.4699442216
H    1.6105401338    9.2841521984    5.2881149981
H    2.0529841751    -2.5950045344    34.2737108740
H    -0.3009796342    2.6295639127    26.7816819660
H    4.2110758365    6.6625782821    0.0187547597
H    -1.0638217735    5.1388193564    36.9741283395
H    -0.6932530925    4.9330984113    33.2787900116
H    -1.4638455512    -2.5190673077    36.2343870336
H    1.0620123035    6.1430106428    31.7964750483
H    1.4361227615    1.3596462564    30.9040546888
H    -0.7773257148    3.1195323418    24.2522007385
H    -1.0190508172    6.6694898810    31.5239951830
H    -2.7337853010    6.3243959626    35.7578630382
H    -0.0038075967    0.5341274820    0.9077303674
H    2.1779558899    3.3992103074    30.3265994664
H    -1.0308493790    0.7021322508    25.3650086615
H    -1.8319593276    -1.4286284304    31.2703849024
H    -3.3056694117    7.2564700074    30.7808091253
H    3.6117815392    1.4767861434    29.8263066838
H    -0.1152277795    3.9789051153    29.5880064111
H    2.2484083915    7.6073651366    13.8730488188
H    -2.5283307336    8.7577976501    6.3872204640
H    -2.1959087901    4.5343126332    29.3116224938
H    2.8092763453    -0.6857220715    35.7162580918
H    -0.3839372589    7.5309144283    36.8268843387
H    1.9491339641    6.9268498410    16.6514707745
H    1.2071657055    9.9441224581    0.8427776590
H    -0.0700280305    5.5174785069    24.1732010978
H    0.5146637157    -1.1713502299    24.9297451374
H    3.1934510224    2.5493988460    24.7659280530
H    3.3902446306    2.3128444203    9.4030240920
H    -0.2641022699    -2.6001488412    33.3793384884
H    -0.1551623458    3.8913947999    22.2266484204
H    -0.2267046000    4.6696411987    20.0675162836
H    2.2147297319    4.5059028134    21.7911935212
H    0.4429980680    0.0073465657    4.9304349389
H    -2.9812633340    8.5796536525    18.1602337765
H    3.0785138312    4.1577768807    10.9812945297
H    1.1365486881    9.0348218124    3.1386281662
H    -0.0167476143    7.7889132583    14.4630199726
H    1.2596274032    -0.9965770351    14.7246297323
H    3.1030651838    3.4045840463    1.6934399720
H    2.5307429276    1.1497494344    18.9652339910
H    -1.0275684385    8.7203167355    21.2461189655
H    3.4838219012    3.2065897563    17.8714104777
H    3.3198383747    3.4533498642    15.1924270232
H    5.0097774510    0.5897647212    6.7753291639
H    0.4999768971    6.6114630539    3.2353491410
H    1.3330593401    2.0226695624    3.8805511483
H    2.6858500524    4.2517344980    8.1403311918
H    -1.0879280417    2.5668551801    16.0663222732
H    2.1698507165    4.8835146140    2.7666332497
H    -0.8263167773    1.4857383790    22.2448290548
H    2.1431140170    6.2767968949    19.6780296830
H    0.2174448647    3.3823694812    13.9233421947
H    0.6899573872    -0.2102932989    7.7193442500
H    2.1021735911    6.7883119626    11.5833605898
H    -1.2050929485    6.2657398192    8.9935962062
H    -0.6909293887    8.9998341307    4.3665290735
H    3.7481398365    -0.0898255769    8.9536370856
H    -0.8780808679    6.9317141404    6.2173559266
H    3.4940019022    9.6616268986    2.6994223150
H    -0.3316522562    5.6087714290    13.1213657067
H    3.6035758599    5.1057040575    16.4503355460
H    -0.5852382031    4.5543139980    17.5089843161
H    0.6803820599    0.9280765703    15.5677901415
H    -1.0635093962    7.0979211495    11.2765863068
H    1.0644830215    6.0854717036    8.3616373558
H    -1.9780989911    8.8945659591    9.5972315420
H    1.3942316692    8.2890371561    9.7474227194
H    3.0700925149    4.9946919929    13.3227305854
H    3.8796003229    2.7490725572    21.2658306007
H    -0.5435275635    5.5195836823    15.3347718215
H    -1.1493973236    7.9171455114    2.2373280021
H    0.5428352294    6.8557987405    21.0116461948
H    -2.5969827006    4.3881515932    19.4262566034
H    0.5763381050    0.9781880709    13.4911023971
H    0.8339263705    -0.2574684400    21.7676161090
H    -1.2066288796    9.4235767583    0.5478686321
H    0.8910213616    -0.8680780864    11.9436816253
H    4.0642304124    5.3252118282    4.7405142911
H    4.7900673893    1.6694844877    1.3729249570
C    3.9352902722    -0.7630333727    22.2524840587
C    0.5369552373    8.2782979847    26.8544810535
C    -2.5721021559    3.4881205557    34.5302300560
C    2.4728606325    1.1210057154    21.4665065290
C    -0.9956134716    5.0525548144    0.8913103840
C    1.4293412472    7.1688563644    26.5689494065
C    -2.8104479591    2.7053393234    36.8246643875
C    3.7977456834    6.2717407415    2.4590551913
C    0.4202224985    3.1660906225    1.6645806072
C    2.0326663078    7.0438501762    25.3283029176
C    2.1386950068    -0.3367818570    26.0940329619
C    3.6726942844    -1.5815647281    24.5508224422
C    -1.6650862781    2.3915728640    34.2484876360
C    1.6499283179    6.1348150378    27.6104892428
C    -3.7423920341    8.6957479942    20.7121058905
C    -1.5300938152    5.2155533386    2.1852357003
C    0.4565801793    1.5852163153    8.9100801132
C    -1.2734665599    1.5295120739    35.2564602800
C    0.0775602637    1.9172226982    32.4717612211
C    3.3836285345    -0.6676247082    23.5442659739
C    -3.3469891180    5.9449309677    25.0233658356
C    -1.2580542289    2.1189990838    32.8467033141
C    3.0223059431    -2.0774705548    28.2580643012
C    3.0766012252    -1.4649955958    25.8509100367
C    0.6856962921    2.2436044911    6.4968401205
C    1.6882595598    -1.8783513133    28.6437616749
C    0.9441587914    0.3688071057    35.5437525780
C    -0.0296803753    4.0020732902    0.6257200222
C    1.6696193189    1.8115611451    27.1132201867
C    -1.8271272489    1.6761565912    36.5710923820
C    2.0160352017    8.8228000907    21.9947400760
C    1.7300902901    7.9923333830    24.2903226581
C    2.1994815617    4.7081816203    36.0692685986
C    3.7703493354    0.2222915711    17.4734650978
C    -0.7733276632    -0.6961988536    34.2281253255
C    4.0196945907    -1.9202048671    29.2326994031
C    2.3174674134    7.9160036185    23.0311127847
C    1.4764169734    4.0007507364    17.7756081034
C    2.5417108160    0.7551602626    26.8703269116
C    -3.1704779507    3.6158569897    35.7716803203
C    3.0184723401    1.3811196812    6.6706469850
C    -2.0116308028    6.2535918024    24.7141036763
C    -0.5166514577    3.7303757241    8.0622884266
C    1.4195255095    2.0951274746    1.3883115149
C    3.4812911170    0.0623522387    21.2017199426
C    2.5963100499    4.5988206446    25.0332790657
C    -3.3952284018    5.7810304964    28.0304810341
C    3.9378201773    -0.1819490275    19.8890015917
C    2.3767502868    -1.3613460572    30.9096428417
C    -1.4740119941    0.8093001550    37.5972839354
C    -0.3517346898    0.3901832534    35.0039217000
C    -2.7311571925    7.6294228633    20.4786282703
C    -2.7970257889    4.5172249116    33.4893026200
C    -0.5975259850    1.4061892301    30.2018994522
C    0.8728961136    4.3977393607    36.4112558997
C    1.3751311037    -1.5167130493    29.9512363481
C    -2.2504077909    1.9591036994    31.8688148356
C    -0.8813082691    3.9641125358    5.6470198579
C    2.2511761855    4.8799677054    33.0724876554
C    0.5536046413    5.4657917490    28.1761557591
C    2.3211466083    7.5440974737    7.3875763792
C    0.8285023044    9.9963491043    5.5408066782
C    1.3837616628    -1.7600673919    34.4865965336
C    -1.0559056840    4.4004803877    3.2367270417
C    0.3772806637    1.7969421104    26.5880486413
C    -3.3421905191    2.8235357538    38.1029734958
C    -0.0469641563    5.4055027819    36.6872187918
C    -1.6952485998    5.1819988124    32.9322479832
C    1.6513294456    7.0664564196    36.2734658287
C    2.0662340332    5.8780866460    32.1228461414
C    0.3983918035    1.5535111362    31.1678843996
C    -1.4952774711    3.9098502187    24.4624454217
C    -1.8771613491    6.1605919011    31.9607897079
C    -3.7586362532    6.0575686138    36.0147266955
C    0.5131640036    1.1679568666    11.3362570625
C    1.0454929876    0.7893956938    1.0401236606
C    2.0322809057    4.1464356511    29.5514920423
C    -0.0309052105    0.7206156691    25.7977460343
C    3.7048083945    -1.5720255744    30.5427767777
C    -3.1644196633    6.5077956596    31.5550362240
C    -1.9286547340    1.6150223314    30.5595795114
C    0.7424538803    4.4892239130    29.1492598602
C    5.1196688877    -1.1250449294    15.8805353275
C    1.9231284550    8.3012053977    13.1044481480
C    4.1888937315    5.4595874637    7.1596486368
C    3.5555305141    7.7744204760    6.7802283664
C    -3.2034075154    4.7866978429    28.9835290248
C    1.8072685188    -0.6954327752    35.2851665448
C    0.3373615540    6.7449863194    36.6090612015
C    2.9198178040    7.1196561039    16.1920174379
C    3.3584092270    0.0961958187    0.9801084297
C    -1.0943988795    5.2469733639    24.4296820049
C    0.8451560323    -0.3361762982    25.5481929058
C    3.6650183326    1.2095686545    12.6430045104
C    -3.1274923993    8.4069616895    15.7104411400
C    3.7191479190    0.7238400022    15.0774871390
C    3.5171476615    3.5899161562    24.7586940743
C    3.5312839056    1.6081693636    10.2222626139
C    2.2056479492    1.9718977066    16.6635274057
C    -0.0162358465    3.9077896776    11.8321864929
C    0.0865302481    -1.7596559019    33.9721037186
C    0.5795959222    3.1166439020    22.0164037372
C    -0.9179459331    5.5017978864    20.1788583159
C    1.9022758085    3.4633909205    21.7488996244
C    4.9950248932    -1.1480606274    19.6490172181
C    -0.0249216297    3.4103211616    2.9824278108
C    1.4478549415    0.1342623535    5.3363032479
C    -0.8986257002    -1.3471632494    18.3257349617
C    4.4750692152    -1.0022518155    13.4335367675
C    3.2209298715    3.4686431876    11.8161109846
C    1.7169223624    1.2242197648    6.1807650077
C    1.8787551228    8.2581249611    2.9678067532
C    -0.9679203452    7.6010084545    14.9562701516
C    -0.0311127583    3.4234787421    10.4922928779
C    -1.1658572279    4.3570739800    6.9987021789
C    0.2533776205    2.5158219663    7.7952053391
C    -1.8864671414    8.6373088126    15.1013324763
C    2.7849083754    2.3888153537    1.4760378601
C    3.2508972237    0.9662062369    16.3659391275
C    3.3507418666    0.4579954643    18.7815521714
C    -1.3867183876    7.7771903761    20.8441164335
C    2.4724999979    3.0764783419    17.4836845281
C    3.3495503193    3.0463076659    14.1867891554
C    4.0111094774    0.4551854083    6.3664371283
C    4.8195047945    -0.7413695244    17.2328683239
C    1.5195763250    6.9131666034    3.0056607477
C    0.5440850455    2.7422190354    4.0805764013
C    -0.4989484107    4.2595646778    9.4375481598
C    2.9407855882    5.2381028374    7.7542893430
C    -0.0925551691    2.7217181675    16.4728412575
C    2.4702842075    5.9290535467    2.7473809147
C    0.1987807663    1.7752280315    22.0173223376
C    -3.1452040352    6.3999645943    19.9515812489
C    0.2404533422    3.0001174235    12.9040401448
C    4.0175200439    -0.1541083341    12.3825430013
C    0.6498451969    0.2084139398    8.7199680903
C    1.8403747269    7.8246898641    11.7955190240
C    -0.8635614327    5.5797339297    9.7621586019
C    -0.4555982064    9.8407973984    5.0189650595
C    3.7392321697    0.2877398222    9.9757332119
C    -1.8526544766    6.7443402011    6.6716038605
C    3.2018686097    8.6122923049    2.7096800203
C    -0.3557466259    5.2445309575    12.0952889784
C    3.5333489994    1.6716307733    13.9765061971
C    -2.4896441608    6.0921964500    16.0608872204
C    0.1882222749    3.8269391141    17.2716026439
C    4.4865591171    -0.4889576277    14.8126240026
C    0.9067920034    1.7979633871    16.1789656562
C    -0.7827039506    6.0656996013    11.0682553745
C    2.0185783839    6.2748457169    7.8745877300
C    0.7886824429    -0.6675975737    9.7957257942
C    0.1490582685    2.9838143637    5.3944430028
C    1.4254317131    8.6563270715    10.7717770718
C    3.2011936987    3.9313350289    13.1202557312
C    2.8426127771    2.4743491907    21.4645927780
C    3.9970062710    -0.6298449525    11.0397404848
C    3.4680190667    2.1107373002    11.5560322257
C    0.3243776519    2.0593535867    10.2402135981
C    -1.2666085685    6.3274213576    15.4353202983
C    -2.1799575352    7.6292749242    2.4557635396
C    -0.4905301609    6.7201804934    20.7005085595
C    -2.2494517401    5.3461087886    19.8044137981
C    0.4433480051    1.6774492423    12.6668881227
C    1.1399682173    0.7865597704    21.7487847994
C    -0.8915526984    10.4262251851    0.8329027039
C    0.7555309748    -0.1937480822    11.0953540885
C    -1.4871335495    4.5941390507    4.5625737245
C    3.7424372160    1.4001434701    1.2834379609
K_POINTS automatic
   1 2 4 1 1 1
